# vtk DataFile Version 2.0
test
ASCII
DATASET UNSTRUCTURED_GRID
POINTS 11046 float
-8.637259 9.596173 1.326101
-14.605294 -8.612657 0.382094
-8.970608 9.343344 1.423908
-9.326884 9.073072 1.526244
-9.619909 8.804478 1.582173
-9.962034 8.509526 1.662283
-10.241841 8.223544 1.694853
-10.567834 7.906807 1.754773
-10.833155 7.605807 1.766929
-11.141567 7.269957 1.808825
-11.391717 6.956037 1.803693
-11.681450 6.603540 1.829684
-11.916180 6.278465 1.810352
-12.186672 5.911330 1.822599
-12.406032 5.576527 1.792020
-12.656916 5.196461 1.792498
-12.861116 4.853059 1.753427
-13.092055 4.461554 1.743837
-13.281375 4.110435 1.698841
-13.492130 3.708723 1.680752
-13.666860 3.350576 1.632224
-13.857168 2.939723 1.607044
-14.017538 2.575094 1.557244
-14.187081 2.156054 1.526269
-14.333281 1.785398 1.477362
-14.481672 1.359059 1.441809
-14.613812 0.982780 1.395906
-14.740565 0.549985 1.356956
-14.858665 0.168488 1.316132
-14.963256 -0.269837 1.274858
-15.066976 -0.656108 1.240364
-15.148552 -1.098954 1.196385
-15.236652 -1.489521 1.167285
-15.294251 -1.935879 1.119947
-15.365221 -2.330213 1.095143
-15.397775 -2.779008 1.044042
-15.449815 -3.176469 1.022443
-15.455994 -3.626484 0.967158
-15.487004 -4.026240 0.947638
-15.465135 -4.476016 0.887699
-15.425959 -4.923706 0.822583
-15.420819 -5.324667 0.803915
-15.350785 -5.768971 0.733617
-15.318005 -6.168566 0.713858
-15.214755 -6.606857 0.637624
-15.151285 -7.002595 0.615270
-15.012245 -7.431490 0.532358
-14.915075 -7.820061 0.505865
-14.738404 -8.235380 0.414792
-6.422812 5.242673 -8.370091
-8.384023 9.242875 1.046758
-8.150133 8.904217 0.724867
-7.932192 8.586432 0.357821
-7.740661 8.296703 -0.054481
-7.570209 8.032929 -0.500610
-7.423684 7.802383 -0.976030
-7.300265 7.602023 -1.473025
-7.185508 7.411973 -1.973790
-7.080772 7.242933 -2.482752
-6.896112 7.011083 -2.932266
-6.729052 6.811363 -3.400690
-6.573742 6.637663 -3.882457
-6.416542 6.464353 -4.356282
-6.225442 6.260493 -4.795860
-6.044732 6.099213 -5.248261
-5.958992 5.959743 -5.729855
-5.912302 5.817023 -6.190733
-5.937432 5.657863 -6.628952
-6.074802 5.531673 -7.069887
-6.219202 5.433693 -7.518209
-6.318232 5.322523 -7.969750
-12.191010 -6.877072 -6.267747
-6.290034 4.792370 -8.753536
-6.049561 4.317339 -9.127841
-5.640727 3.910292 -9.292546
-5.369802 3.480670 -9.519688
-5.159479 3.065406 -9.825538
-4.971580 2.635893 -10.140927
-4.975627 2.356843 -10.592452
-5.011547 2.089665 -11.055131
-5.133333 1.875327 -11.536859
-5.081490 1.375631 -11.539100
-5.206668 1.017412 -11.874248
-5.396219 0.722369 -12.166943
-5.655107 0.458447 -12.418760
-5.854677 0.317597 -12.897300
-5.995410 0.277020 -13.359637
-6.134250 0.407866 -13.696117
-6.274260 0.519755 -14.127372
-6.427990 0.326382 -14.481250
-6.743060 0.236606 -14.444580
-7.098330 -0.024595 -14.239030
-7.379250 0.042358 -13.771210
-7.698340 0.122396 -13.367649
-7.893430 0.491490 -13.025680
-8.006330 0.814979 -12.670540
-8.165380 0.984827 -12.194347
-8.350360 0.944526 -11.718769
-8.484820 0.749649 -11.265026
-8.585240 0.855474 -10.841346
-8.650380 1.280364 -10.653288
-9.044450 1.547161 -10.575148
-9.490840 1.710735 -10.577701
-9.897030 1.656956 -10.302775
-10.295290 1.706023 -9.988473
-10.513900 1.888843 -9.705952
-10.755910 1.960695 -9.510200
-10.446960 1.687876 -9.713556
-10.072650 1.598916 -9.832782
-9.750590 1.548077 -9.970327
-9.541450 1.548792 -10.255632
-9.324580 1.521187 -10.667459
-8.968450 1.631725 -11.059736
-8.721310 1.550145 -11.524704
-8.454230 1.380853 -11.969582
-8.284220 1.013776 -12.408522
-8.049010 0.653662 -12.671566
-7.703910 0.365815 -12.934670
-7.341400 0.203122 -13.236369
-6.920340 0.149554 -13.535520
-6.425220 0.387273 -13.711495
-6.283870 0.164959 -14.089927
-6.468460 0.047460 -14.408870
-6.705910 -0.074753 -14.692988
-6.889670 -0.239429 -15.029657
-7.205110 -0.441547 -15.164200
-7.562030 -0.618422 -15.135998
-7.886060 -0.820997 -15.078297
-8.125180 -1.125209 -14.981982
-8.160600 -1.564432 -14.940207
-8.077250 -2.012142 -14.890361
-7.812490 -2.335865 -14.741395
-7.673050 -2.623734 -14.523507
-7.635730 -3.023399 -14.449743
-7.703680 -3.386077 -14.311114
-7.839180 -3.664940 -14.098901
-8.038390 -3.891168 -13.815141
-8.259780 -3.991024 -13.495561
-8.351770 -4.091360 -12.978284
-8.595520 -4.119592 -12.542787
-9.011920 -3.980357 -12.297889
-9.370220 -3.758411 -12.081506
-9.545740 -3.594323 -11.685519
-9.655120 -3.483596 -11.241072
-9.750490 -3.451448 -10.761561
-9.876830 -3.438665 -10.296275
-10.062380 -3.414829 -9.843528
-10.286130 -3.452848 -9.363388
-10.483420 -3.629671 -8.889426
-10.687630 -3.882385 -8.448018
-10.840070 -4.140150 -8.001760
-11.062910 -4.338852 -7.563181
-11.298960 -4.602761 -7.182305
-11.536070 -4.960261 -6.879208
-11.795420 -5.369452 -6.653189
-12.008540 -5.825647 -6.534068
-12.125490 -6.360032 -6.411050
-14.292325 -8.338519 -0.011960
-13.963828 -8.129844 -0.436542
-13.613300 -7.942102 -0.830273
-13.314109 -7.787256 -1.258979
-13.059160 -7.645480 -1.713176
-12.885630 -7.552115 -2.163452
-12.806170 -7.457293 -2.637971
-12.744120 -7.345159 -3.099311
-12.677400 -7.199122 -3.526369
-12.662700 -7.021002 -3.942262
-12.628350 -6.935552 -4.397668
-12.575820 -6.875212 -4.820795
-12.475320 -6.878352 -5.198384
-12.369760 -6.862632 -5.563889
-12.263600 -6.874592 -5.912724
-6.211034 4.919322 -8.245349
-6.119852 4.989025 -7.745085
-6.057894 4.568850 -7.891372
-6.041529 4.540914 -8.415594
-6.071986 4.574305 -8.769150
-5.930105 4.242860 -8.785556
-5.782788 3.781507 -8.992585
-5.553569 3.315575 -9.235914
-5.368012 2.888345 -9.545878
-5.270116 2.513458 -9.940225
-5.237467 2.211591 -10.407602
-5.265468 1.954274 -10.855244
-5.367167 1.753746 -11.269241
-5.386720 1.270007 -11.363689
-5.494828 0.835609 -11.577751
-5.716355 0.548457 -11.874203
-5.971140 0.310910 -12.241152
-6.239030 0.268056 -12.682853
-6.317400 0.255092 -13.154398
-6.413640 0.435759 -13.529889
-6.583450 0.390118 -13.803630
-6.801990 0.180179 -14.023440
-7.326520 0.315477 -13.292785
-7.501290 0.490268 -12.928690
-7.668150 0.675787 -12.520080
-7.911690 0.792814 -12.099508
-8.083820 0.771738 -11.613599
-8.203240 0.649639 -11.129949
-8.324230 0.723690 -10.666804
-8.532840 0.964998 -10.314176
-8.847520 1.394057 -10.063962
-9.401850 1.687732 -10.172534
-9.761780 1.690122 -9.965264
-10.078000 1.770848 -9.683201
-10.297820 2.027872 -9.458162
-10.555580 2.162684 -9.259663
-8.690662 8.974686 1.146596
-8.424951 8.623667 0.820343
-8.177763 8.299857 0.447399
-7.957526 8.002561 0.030846
-7.763197 7.734545 -0.420380
-7.591273 7.496389 -0.900166
-7.473245 7.298756 -1.417085
-7.311478 7.081754 -1.907034
-7.253047 6.936384 -2.455820
-7.051259 6.703575 -2.903525
-6.881932 6.501079 -3.384538
-6.721066 6.302236 -3.871540
-6.599936 6.139865 -4.379787
-6.368684 5.911233 -4.813231
-6.212253 5.731395 -5.295561
-6.143040 5.574168 -5.807971
-5.934705 5.332281 -6.210190
-5.937098 5.170408 -6.707914
-5.998628 5.067364 -7.233933
-10.401350 1.659744 -9.300775
-9.902830 1.573849 -9.449986
-9.541170 1.528112 -9.597925
-9.306690 1.467476 -9.894564
-9.120090 1.362931 -10.280944
-8.817160 1.270095 -10.755469
-8.602590 1.254256 -11.399768
-8.574960 1.033427 -11.935092
-8.193280 0.794604 -12.140660
-7.834150 0.576397 -12.378353
-7.498220 0.377109 -12.648318
-7.164840 0.265807 -12.938867
-6.868580 0.245353 -13.221605
-6.520430 0.211394 -13.393472
-6.473250 -0.011800 -13.704937
-6.629050 -0.150532 -14.012233
-6.818010 -0.294056 -14.326999
-7.014640 -0.448584 -14.597928
-7.222300 -0.598491 -14.749764
-7.470920 -0.780982 -14.711840
-7.729420 -1.022247 -14.669147
-7.941360 -1.315816 -14.708058
-8.047620 -1.574324 -14.752113
-7.956200 -1.829450 -14.640651
-7.865880 -2.120979 -14.454769
-7.823560 -2.399533 -14.243128
-7.728290 -2.730193 -14.081243
-7.762620 -3.028751 -13.906062
-7.843220 -3.319609 -13.702359
-8.000360 -3.529050 -13.459019
-8.225680 -3.653958 -13.161496
-8.333490 -3.766992 -12.769084
-8.539540 -3.816559 -12.399127
-8.832310 -3.741288 -12.170512
-9.073630 -3.598056 -11.905090
-9.235310 -3.528587 -11.500935
-9.338610 -3.482118 -11.048037
-9.432820 -3.452141 -10.582464
-9.571890 -3.457004 -10.126880
-9.784840 -3.486016 -9.684209
-10.016070 -3.569747 -9.226025
-10.210100 -3.712323 -8.744534
-10.417940 -3.918336 -8.274064
-10.587420 -4.099502 -7.792368
-10.821130 -4.312133 -7.340571
-11.067470 -4.564112 -6.926707
-11.315560 -4.906624 -6.584119
-11.559060 -5.324069 -6.325564
-11.820970 -5.830126 -6.169048
-12.067480 -6.346454 -6.070475
-14.389950 -7.994683 0.073696
-14.522439 -7.634016 0.142771
-14.576122 -7.258161 0.253349
-14.664878 -6.870026 0.373457
-14.716160 -6.467856 0.464233
-14.796354 -6.061763 0.546666
-14.828875 -5.648403 0.615849
-14.890435 -5.238942 0.665377
-14.895750 -4.825419 0.731660
-14.940978 -4.407790 0.775235
-14.951307 -3.992815 0.808665
-14.934795 -3.580570 0.836049
-14.920163 -3.168587 0.883716
-14.872209 -2.759114 0.922206
-14.841284 -2.345081 0.953236
-14.773804 -1.930296 0.983604
-14.726491 -1.523298 1.000900
-14.645106 -1.113973 1.020849
-14.577876 -0.699955 1.035106
-14.480311 -0.293088 1.055292
-14.401729 0.116296 1.055021
-14.298892 0.516085 1.063042
-14.208477 0.921565 1.059206
-14.094953 1.312173 1.076322
-13.959854 1.698860 1.106203
-13.817118 2.074870 1.141292
-13.641491 2.438429 1.198041
-13.474781 2.806301 1.248995
-13.265506 3.151788 1.336157
-13.082425 3.522608 1.388706
-12.861634 3.868104 1.466436
-12.662217 4.236146 1.510170
-12.436021 4.578134 1.562833
-12.225281 4.941017 1.576467
-11.982129 5.273534 1.613997
-11.758519 5.624948 1.615791
-11.503260 5.949753 1.621558
-11.264083 6.291712 1.607179
-10.989202 6.607452 1.602364
-10.732348 6.935581 1.571991
-10.447245 7.242110 1.541992
-10.165581 7.553677 1.510825
-9.878457 7.846213 1.447754
-9.589241 8.145349 1.395370
-9.291166 8.425389 1.311112
-8.996128 8.706728 1.240594
-12.057960 -6.368234 -5.677484
-12.159540 -6.442018 -5.271488
-12.215150 -6.516952 -4.839686
-12.300650 -6.600045 -4.405653
-12.369490 -6.694848 -3.945079
-12.468770 -6.821121 -3.499137
-12.589010 -6.979904 -3.058349
-12.712500 -7.100917 -2.590256
-12.892970 -7.210888 -2.126069
-13.147140 -7.332785 -1.676263
-13.420199 -7.463487 -1.213787
-13.756363 -7.620627 -0.789798
-14.114088 -7.804136 -0.391708
-5.926049 4.098193 -8.410352
-5.840924 3.593314 -8.672070
-5.693350 3.063990 -8.924248
-5.549096 2.633621 -9.322516
-5.498039 2.293974 -9.782234
-5.488880 2.027381 -10.235715
-5.513705 1.817089 -10.676344
-5.570594 1.627038 -11.054351
-5.667171 1.232154 -11.150674
-5.798231 0.826173 -11.329454
-6.040330 0.522582 -11.619192
-6.313760 0.332182 -11.997248
-6.641460 0.340237 -13.353506
-6.848820 0.331214 -13.492438
-7.081430 0.168531 -13.687610
-7.007010 0.376770 -13.146834
-7.144310 0.409731 -12.696274
-7.320800 0.524412 -12.277287
-7.625220 0.652811 -11.985648
-7.791080 0.622632 -11.493974
-7.890200 0.643517 -10.988911
-8.002210 0.699170 -10.508918
-8.145240 0.844260 -10.077422
-8.347010 1.036768 -9.724923
-9.220710 1.605981 -9.588336
-9.595710 1.726049 -9.523015
-9.897530 1.730334 -9.285091
-10.114880 1.952696 -9.056390
-10.339980 2.192465 -8.885335
-10.466260 1.840939 -8.816248
-9.626700 1.502744 -9.043067
-9.291900 1.473976 -9.189765
-9.071840 1.385087 -9.479379
-8.899550 1.252744 -9.803873
-8.756520 1.030728 -10.109421
-8.560550 0.924354 -11.350307
-8.365210 0.784620 -11.725405
-7.985340 0.614416 -11.882510
-7.584820 0.467563 -12.101366
-7.257420 0.316228 -12.391577
-6.967410 0.201549 -12.705522
-6.796160 0.195473 -12.982868
-6.589560 0.053929 -13.083692
-6.565870 -0.186501 -13.334412
-6.738280 -0.325611 -13.652474
-6.918200 -0.481339 -13.972017
-7.086410 -0.606536 -14.265004
-7.231880 -0.693055 -14.469048
-7.383780 -0.868523 -14.357461
-7.835700 -1.552734 -14.447373
-7.807500 -1.840525 -14.178304
-7.810660 -2.094239 -13.928250
-7.841560 -2.396051 -13.738828
-7.874600 -2.667209 -13.525040
-7.943790 -2.934729 -13.338491
-8.028830 -3.166218 -13.105279
-8.247120 -3.303160 -12.832277
-8.294540 -3.427289 -12.447983
-8.541140 -3.472456 -12.172613
-8.741290 -3.539535 -12.041065
-8.839700 -3.423859 -11.728792
-8.964560 -3.345004 -11.324376
-9.060070 -3.303623 -10.871476
-9.136230 -3.310091 -10.403938
-9.276900 -3.337914 -9.947936
-9.485290 -3.441200 -9.524260
-9.722060 -3.546668 -9.068596
-9.909080 -3.664408 -8.575318
-10.140310 -3.836467 -8.052821
-10.302060 -4.005622 -7.469397
-10.579800 -4.246803 -7.017908
-10.840360 -4.492570 -6.588657
-11.074740 -4.821095 -6.244937
-11.320090 -5.218383 -5.951618
-11.599390 -5.779044 -5.710602
-8.677200 0.886087 -10.839368
-8.702140 0.709177 -10.309183
-8.819820 1.447017 -9.529955
-8.341690 1.218221 -9.332893
-10.079940 1.369383 -9.010057
-10.321710 1.462078 -8.660962
-14.123314 -7.454849 -0.241964
-14.174795 -7.109416 -0.106515
-14.204161 -6.743131 0.073638
-14.231085 -6.357420 0.218371
-14.287297 -5.962430 0.335449
-14.319446 -5.558865 0.425551
-14.358172 -5.153608 0.499600
-14.378510 -4.748816 0.556457
-14.405112 -4.346086 0.612433
-14.416326 -3.948904 0.652870
-14.396092 -3.545578 0.695214
-14.388221 -3.141208 0.716668
-14.349313 -2.738110 0.743486
-14.320369 -2.335992 0.762271
-14.266165 -1.934298 0.788457
-14.214277 -1.527322 0.796461
-14.154681 -1.123439 0.795609
-14.091018 -0.713491 0.794516
-14.026758 -0.306989 0.767011
-13.960912 0.095351 0.740692
-13.898352 0.495104 0.698975
-13.831288 0.883607 0.667834
-13.737322 1.266281 0.665505
-13.621022 1.636276 0.679768
-13.469839 1.991743 0.719711
-13.300420 2.329342 0.777596
-13.105133 2.657113 0.870324
-12.903205 2.986250 0.966655
-12.685424 3.313859 1.077228
-12.474733 3.658177 1.153801
-12.258399 3.994503 1.235067
-12.038192 4.333832 1.283970
-11.808095 4.668208 1.337163
-11.581079 5.002135 1.352383
-11.344776 5.330056 1.371330
-11.104711 5.653562 1.365722
-10.855674 5.973459 1.365827
-10.600378 6.286376 1.338819
-10.338165 6.599797 1.308075
-10.072880 6.906563 1.261705
-9.799019 7.207588 1.215743
-9.517591 7.499002 1.160348
-9.250566 7.791545 1.084774
-8.969114 8.069967 0.997813
-8.699646 8.352463 0.910778
-8.423958 8.019503 0.543181
-8.178872 7.718706 0.129168
-7.957754 7.444317 -0.317697
-7.760327 7.200042 -0.794020
-7.570526 6.974721 -1.278820
-7.465063 6.780764 -1.810212
-7.276358 6.570365 -2.299168
-7.235020 6.407698 -2.872120
-7.055052 6.190058 -3.350857
-6.913587 6.000610 -3.850354
-6.703301 5.773721 -4.310326
-6.557114 5.573405 -4.793907
-6.443535 5.397745 -5.299353
-6.114653 5.106808 -5.645793
-6.033715 4.892538 -6.141028
-5.966532 4.722107 -6.679678
-5.972701 4.617014 -7.255975
-11.702190 -6.079075 -5.270287
-11.795570 -6.181958 -4.771825
-11.914770 -6.297116 -4.328991
-12.031440 -6.402343 -3.860272
-12.169840 -6.512943 -3.379354
-12.369150 -6.652210 -2.951660
-12.575950 -6.772969 -2.493132
-12.857390 -6.866565 -2.052168
-13.178090 -6.983777 -1.616719
-13.493750 -7.123025 -1.165254
-13.845972 -7.278741 -0.738729
-6.663750 0.297979 -13.000657
-6.672320 0.278329 -12.452506
-6.975290 0.347750 -11.972113
-7.261160 0.514217 -11.658075
-7.485260 0.756508 -11.363201
-7.547260 0.742709 -10.859969
-7.661250 0.769126 -10.372381
-7.777320 0.795719 -9.924704
-7.914730 0.932161 -9.566489
-7.890350 1.063515 -9.195079
-7.787060 1.219876 -8.763672
-8.257280 1.315413 -8.899828
-8.676070 1.437422 -9.028566
-9.055150 1.576788 -9.091065
-9.373050 1.656085 -8.998822
-9.667370 1.617628 -8.801361
-9.948990 1.755399 -8.562742
-10.080400 2.126600 -8.429203
-10.384980 1.914398 -8.335941
-10.491430 1.531327 -8.210102
-10.268160 1.218820 -8.011135
-10.075220 1.208019 -8.410262
-9.736290 1.414215 -8.520797
-9.373910 1.415782 -8.607730
-9.045000 1.394120 -8.782994
-8.840710 1.282874 -9.074618
-8.699510 1.123099 -9.364652
-8.600300 0.857817 -9.552195
-8.477150 0.589530 -9.748702
-8.271470 0.354567 -9.885647
-8.383760 0.525213 -10.390788
-8.566480 0.586253 -10.922070
-8.541540 0.634275 -11.331960
-8.169840 0.595011 -11.448504
-7.789460 0.481550 -11.587811
-7.383000 0.382262 -11.805688
-7.050870 0.212943 -12.099151
-6.703570 0.023297 -12.550758
-6.647290 -0.331157 -12.910889
-6.828110 -0.523934 -13.295881
-7.027890 -0.687745 -13.664136
-7.219580 -0.809601 -14.020946
-7.601500 -1.207280 -14.211896
-7.681290 -1.537410 -13.852792
-7.741650 -1.788266 -13.571653
-7.814290 -2.051509 -13.360656
-7.889640 -2.308491 -13.145752
-7.980580 -2.566872 -12.951059
-8.103090 -2.795540 -12.743012
-8.156660 -2.976938 -12.431489
-8.299910 -3.101355 -12.089555
-8.536290 -3.205576 -11.696437
-8.712300 -3.100085 -11.166399
-8.818620 -3.055118 -10.684270
-8.881110 -3.087228 -10.200710
-8.998910 -3.146973 -9.735797
-9.191720 -3.253471 -9.311795
-9.423160 -3.398887 -8.922749
-9.599340 -3.505835 -8.416500
-9.820380 -3.662002 -7.881850
-9.986480 -3.776325 -7.053248
-10.374360 -4.110843 -6.543590
-10.642840 -4.403863 -6.160803
-10.884790 -4.724721 -5.828638
-11.092230 -5.095538 -5.540023
-11.271610 -5.485917 -5.245680
-11.391080 -5.770171 -4.890663
-11.491250 -5.938654 -4.458875
-11.610570 -6.068935 -3.991465
-11.758480 -6.184486 -3.526401
-11.932490 -6.295486 -3.052100
-12.165190 -6.413058 -2.594477
-12.428030 -6.516528 -2.152222
-12.725580 -6.623372 -1.717013
-13.058470 -6.728130 -1.297166
-13.417084 -6.841149 -0.887970
-13.781850 -6.972433 -0.487507
-5.886633 3.954492 -7.747573
-5.851920 3.351753 -8.159183
-5.848193 2.656277 -8.529965
-5.759760 2.304440 -9.147691
-5.734560 2.041857 -9.670787
-5.745029 1.797456 -10.135093
-5.779260 1.626576 -10.572227
-5.781745 1.541758 -10.895884
-5.884083 1.210373 -10.892947
-6.051340 0.839314 -11.070280
-6.311160 0.564076 -11.319501
-6.613770 0.380422 -11.638371
-8.673972 7.739776 0.636632
-8.402140 7.434218 0.233670
-8.157508 7.157023 -0.204864
-7.917354 6.899727 -0.654123
-7.730832 6.675427 -1.145484
-7.525511 6.457783 -1.625850
-7.405970 6.272985 -2.152799
-7.210172 6.075361 -2.623838
-7.079087 5.880962 -3.120954
-6.887130 5.669751 -3.590320
-6.726643 5.458970 -4.063873
-6.568609 5.241305 -4.545488
-6.374417 5.019656 -4.973740
-6.239228 4.751571 -5.447841
-6.092750 4.510446 -5.955855
-6.031451 4.323061 -6.504753
-6.022183 4.183287 -7.101321
-13.769599 -6.629469 -0.260414
-13.770695 -6.256962 -0.075435
-13.798862 -5.874217 0.076673
-13.824766 -5.479422 0.186647
-13.846625 -5.081856 0.279028
-13.862926 -4.685986 0.346871
-13.878263 -4.292699 0.414124
-13.879444 -3.903486 0.462188
-13.873547 -3.506692 0.493349
-13.855021 -3.108444 0.523301
-13.831734 -2.712278 0.534439
-13.803085 -2.313484 0.549061
-13.765950 -1.916611 0.550780
-13.719370 -1.514115 0.553878
-13.670789 -1.113121 0.537454
-13.633888 -0.708013 0.497286
-13.594592 -0.306505 0.439639
-13.563049 0.093428 0.366993
-13.536239 0.477321 0.286936
-13.494499 0.857743 0.230917
-13.435272 1.231278 0.201782
-13.322828 1.588473 0.213413
-13.177248 1.929319 0.246343
-12.982997 2.235108 0.325092
-12.783907 2.533671 0.433341
-12.557744 2.821696 0.573292
-12.336995 3.133943 0.699866
-12.099855 3.438653 0.825261
-11.880532 3.764918 0.912099
-11.656140 4.090603 0.978295
-11.422757 4.407878 1.042517
-11.188955 4.729807 1.072312
-10.961469 5.047361 1.076313
-10.718525 5.359553 1.082081
-10.479335 5.671626 1.068084
-10.221520 5.975429 1.043539
-9.970812 6.283024 1.005732
-9.704153 6.580936 0.957995
-9.446178 6.879722 0.891857
-9.185645 7.173575 0.814867
-8.925142 7.456748 0.735879
-6.901100 0.515678 -11.355239
-7.093470 0.672289 -11.073808
-7.083770 0.795170 -10.572763
-7.306080 0.813184 -10.119029
-7.474280 0.881225 -9.746256
-7.619780 0.918527 -9.487439
-7.489090 1.030593 -9.200086
-7.242120 1.220742 -8.725985
-7.284540 1.413007 -8.219982
-7.727460 1.361807 -8.300940
-8.158050 1.382969 -8.432574
-8.552720 1.470331 -8.570433
-8.881150 1.549615 -8.630574
-9.139480 1.590834 -8.506262
-9.405660 1.569955 -8.292094
-9.709270 1.568325 -8.061439
-9.878100 1.982746 -7.882825
-10.267970 1.897908 -7.841677
-10.534580 1.613612 -7.721853
-10.458630 1.257041 -7.586406
-10.350970 0.949185 -7.383627
-10.009870 1.080362 -7.675394
-9.775690 1.282284 -7.912331
-9.476430 1.301175 -8.023735
-9.150730 1.287268 -8.179594
-8.856620 1.218342 -8.400824
-8.678050 1.100851 -8.712411
-8.595570 0.986596 -9.002191
-8.133360 0.186421 -9.370542
-7.906770 -0.046894 -9.480230
-7.994690 0.151173 -9.982429
-8.158750 0.306194 -10.465869
-8.252290 0.448937 -10.858150
-8.291740 0.523984 -11.129431
-8.055770 0.436551 -11.205899
-7.663000 0.358624 -11.287409
-7.299820 0.196601 -11.505815
-6.982770 -0.027221 -11.794184
-6.785110 -0.276323 -12.188242
-6.777510 -0.538617 -12.593111
-6.955200 -0.721331 -13.001851
-7.152190 -0.894867 -13.384164
-7.366580 -1.048798 -13.772071
-7.486730 -1.295461 -13.474904
-7.598480 -1.506308 -13.203137
-7.720500 -1.738905 -12.965823
-7.837990 -1.974309 -12.733354
-7.946680 -2.228521 -12.531803
-8.003370 -2.472508 -12.319360
-8.079740 -2.664607 -12.049617
-8.205120 -2.799355 -11.743801
-8.363230 -2.860363 -11.373481
-8.483070 -2.851509 -10.939847
-8.589610 -2.806107 -10.477281
-8.632750 -2.855227 -9.985029
-8.729530 -2.921733 -9.493102
-8.897360 -3.021092 -9.024338
-9.114400 -3.147685 -8.589945
-9.285830 -3.256476 -8.129907
-9.468500 -3.381149 -7.621417
-9.583310 -3.436258 -7.014946
-10.234440 -4.041639 -5.973816
-10.510150 -4.327081 -5.666803
-10.736910 -4.631931 -5.386865
-10.931630 -4.974961 -5.145761
-11.082620 -5.278291 -4.904987
-11.151210 -5.495423 -4.554526
-11.225640 -5.675973 -4.137747
-11.351970 -5.817411 -3.680669
-11.515850 -5.940281 -3.207519
-11.732830 -6.036820 -2.738485
-11.995150 -6.139969 -2.280261
-12.284990 -6.236701 -1.835933
-12.616130 -6.328564 -1.413237
-12.978380 -6.420991 -1.009957
-13.359920 -6.520610 -0.623408
-9.934420 -3.732676 -6.241438
-9.609210 -3.438204 -6.330407
-8.629760 7.150499 0.344724
-8.356984 6.865904 -0.075280
-8.103537 6.605956 -0.517956
-7.866917 6.368033 -0.975633
-7.667401 6.153252 -1.456444
-7.451946 5.944628 -1.923255
-7.295846 5.749114 -2.414910
-7.104551 5.540605 -2.883693
-6.941596 5.335182 -3.353641
-6.759810 5.115051 -3.818511
-6.588739 4.884906 -4.269728
-6.448778 4.643801 -4.744662
-6.298846 4.383048 -5.217371
-6.202690 4.145516 -5.731744
-6.114134 3.930728 -6.254945
-6.004246 3.703628 -6.756765
-5.957647 3.436784 -7.267462
-5.956169 3.011531 -7.667316
-6.059518 2.546697 -7.962192
-5.997010 1.916426 -9.072566
-5.961471 1.732911 -9.533651
-5.991770 1.510552 -9.982519
-6.063770 1.241227 -10.473854
-6.326260 0.849689 -10.796916
-6.571250 0.610933 -11.087539
-6.075280 2.073742 -8.588527
-6.244000 2.102344 -8.149253
-13.334530 -6.165690 -0.403661
-13.337150 -5.791221 -0.227579
-13.347990 -5.407515 -0.093735
-13.354860 -5.018301 0.011573
-13.358850 -4.628245 0.094694
-13.375360 -4.239941 0.149113
-13.371390 -3.852171 0.203212
-13.362020 -3.464087 0.242593
-13.346400 -3.072396 0.267673
-13.321280 -2.679821 0.287935
-13.305010 -2.283867 0.285122
-13.272630 -1.887781 0.289681
-13.241710 -1.490025 0.273618
-13.215072 -1.086922 0.231651
-13.197573 -0.688673 0.164688
-13.186011 -0.291934 0.077616
-13.198194 0.094439 -0.041272
-13.198434 0.472939 -0.149707
-13.213016 0.839606 -0.249303
-13.170742 1.205034 -0.288527
-13.104666 1.565902 -0.303527
-12.925440 1.879892 -0.255437
-12.726925 2.171033 -0.178842
-12.489475 2.417917 -0.026883
-12.260195 2.691988 0.128802
-12.004294 2.945202 0.310206
-11.766289 3.242056 0.441139
-11.526960 3.538102 0.562118
-11.292463 3.845582 0.649912
-11.066069 4.159828 0.705570
-10.824745 4.463958 0.748190
-10.586484 4.769710 0.769967
-10.355697 5.079101 0.759832
-10.119333 5.385298 0.739605
-9.872392 5.684058 0.708219
-9.613129 5.979617 0.673645
-9.365885 6.278242 0.607893
-9.111451 6.571779 0.534728
-8.865869 6.862064 0.446955
-6.770180 0.688067 -10.919428
-7.006330 0.961512 -9.765813
-7.212500 0.978245 -9.437545
-7.261390 1.573642 -7.778330
-7.668950 1.487324 -7.834696
-8.104330 1.467317 -7.977949
-8.481770 1.510340 -8.151686
-8.745980 1.544959 -8.283728
-8.880710 1.562327 -8.090878
-9.077840 1.562295 -7.829642
-9.345880 1.480118 -7.545320
-9.675260 1.593918 -7.209925
-10.157640 1.871916 -7.242043
-10.505130 1.709985 -7.193403
-10.586980 1.372645 -7.118820
-10.528100 1.046537 -6.982014
-10.310700 0.868295 -6.751714
-10.096850 1.220203 -7.063854
-9.808550 1.137215 -7.253972
-9.539740 1.232071 -7.429868
-9.267060 1.192931 -7.558176
-8.965960 1.093193 -7.743095
-8.705010 0.992582 -8.017990
-8.537480 0.861503 -8.399374
-8.461530 0.717485 -8.917557
-8.533800 1.552726 -7.767936
-8.702160 1.576193 -7.395364
-9.369680 1.484985 -6.322733
-9.717300 1.517134 -6.577521
-10.066860 1.740602 -6.686368
-10.410120 1.703476 -6.669221
-10.645480 1.460885 -6.640293
-10.658460 1.119127 -6.557718
-10.543220 0.839097 -6.393084
-10.348530 0.995391 -6.096664
-10.106430 1.016366 -6.347659
-9.833940 0.982940 -6.592394
-9.545600 1.070352 -6.833960
-9.399050 1.105746 -7.110475
-9.130960 1.029711 -7.118628
-8.853100 0.870319 -7.310334
-8.596430 0.743061 -7.600928
-8.434370 0.599421 -7.991575
-8.324930 0.437819 -8.395112
-8.193330 0.225311 -8.683492
-8.328890 0.426101 -9.196118
-8.044900 -0.008232 -8.864707
-7.844730 -0.237723 -8.980784
-7.661770 -0.496921 -9.043078
-7.641330 -0.321130 -9.546861
-7.722730 -0.085869 -10.060308
-7.825590 0.143247 -10.505368
-7.931720 0.317928 -10.887161
-7.242250 -0.044675 -11.209038
-7.001020 -0.303532 -11.528173
-6.879010 -0.562400 -11.932569
-6.910730 -0.742585 -12.340851
-7.062580 -0.916342 -12.713197
-7.270750 -1.099222 -13.092415
-7.395800 -1.291030 -12.817939
-7.555960 -1.458552 -12.556888
-7.659140 -1.695693 -12.318893
-7.757780 -1.946880 -12.101242
-7.870740 -2.180575 -11.892282
-7.973860 -2.380936 -11.663689
-8.096370 -2.528056 -11.401444
-8.216290 -2.613137 -11.120079
-8.284760 -2.609053 -10.745942
-8.346540 -2.582512 -10.301324
-8.386210 -2.605056 -9.819530
-8.452340 -2.667013 -9.317402
-8.579930 -2.756982 -8.824119
-8.766820 -2.863839 -8.354529
-8.934780 -2.976007 -7.879116
-9.125820 -3.073373 -7.394047
-9.230150 -3.132968 -6.857500
-9.304080 -3.154178 -6.284601
-9.333730 -3.150748 -5.699145
-9.617980 -3.421548 -5.700105
-9.893470 -3.702757 -5.590810
-10.172100 -3.983012 -5.404562
-10.419140 -4.277388 -5.152489
-10.653160 -4.589006 -4.913196
-10.832370 -4.898483 -4.748119
-10.967800 -5.137515 -4.663391
-10.976900 -5.232975 -4.334520
-11.022320 -5.380833 -3.896894
-11.135290 -5.522951 -3.416706
-11.330530 -5.640178 -2.934809
-11.572760 -5.739354 -2.461788
-11.857860 -5.835409 -2.001760
-12.180690 -5.917618 -1.562616
-12.538220 -5.997682 -1.150806
-12.923670 -6.079000 -0.764894
-8.573963 6.576694 0.042292
-8.297865 6.309222 -0.379116
-8.049934 6.067415 -0.825536
-7.810184 5.838754 -1.276291
-7.604684 5.627218 -1.745529
-7.388840 5.414399 -2.203963
-7.197722 5.205065 -2.665067
-7.013538 4.987842 -3.127110
-6.853104 4.764489 -3.587230
-6.715722 4.529310 -4.056027
-6.551315 4.279292 -4.515327
-6.437305 4.026442 -4.996533
-6.318823 3.776040 -5.480130
-6.227037 3.535753 -5.971843
-6.169062 3.301594 -6.462268
-6.141739 3.018881 -6.915340
-6.171040 2.733647 -7.313255
-6.239420 2.409126 -7.600335
-6.410080 2.091875 -7.781035
-6.642010 1.799073 -7.950161
-6.487110 1.751058 -8.307556
-6.345610 1.696449 -8.699602
-6.247280 1.604135 -9.090940
-6.214760 1.481106 -9.471437
-6.286660 1.285057 -9.837175
-6.439400 1.053168 -10.231969
-6.641110 0.832027 -10.610725
-6.760770 0.953110 -10.058460
-12.903960 -5.715897 -0.566630
-12.892230 -5.340603 -0.412296
-12.878670 -4.961255 -0.290943
-12.880920 -4.574420 -0.205534
-12.881470 -4.189368 -0.139022
-12.880320 -3.803791 -0.090649
-12.868640 -3.415654 -0.050743
-12.853600 -3.029090 -0.024265
-12.835820 -2.638318 -0.010645
-12.815260 -2.244461 -0.001175
-12.801870 -1.849629 -0.011724
-12.787880 -1.449923 -0.042856
-12.772010 -1.051584 -0.094678
-12.774420 -0.657607 -0.186324
-12.799610 -0.269529 -0.308723
-12.835260 0.110603 -0.449120
-12.919547 0.467005 -0.627950
-12.917237 0.832821 -0.721564
-13.013809 1.194400 -0.833021
-12.913042 1.548288 -0.822756
-12.779089 1.889979 -0.812384
-12.471422 2.087691 -0.678147
-12.257010 2.351357 -0.534839
-11.973734 2.542966 -0.310032
-11.706685 2.782110 -0.119031
-11.442788 3.034001 0.052983
-11.196794 3.318216 0.183393
-10.957431 3.613585 0.283255
-10.722680 3.913163 0.352231
-10.486480 4.211122 0.396335
-10.247950 4.510033 0.415627
-10.011590 4.809373 0.412077
-9.776500 5.106925 0.391715
-9.531740 5.402850 0.357486
-9.287400 5.696945 0.305450
-9.037590 5.987370 0.241564
-8.803042 6.284428 0.149410
-6.550010 1.162230 -9.697675
-6.736830 1.142279 -9.434352
-6.798560 1.473094 -8.489346
-7.188820 -1.098637 -12.460246
-7.295920 -1.231358 -12.162139
-7.444090 -1.434501 -11.890758
-7.589490 -1.679261 -11.654910
-7.734070 -1.918211 -11.448925
-7.874410 -2.136396 -11.253266
-7.998990 -2.317127 -11.073828
-8.107300 -2.443426 -10.944318
-8.113240 -2.387596 -10.635275
-8.119540 -2.343466 -10.213829
-8.143450 -2.331587 -9.730166
-8.173780 -2.382552 -9.218221
-8.250940 -2.475512 -8.702628
-8.396490 -2.578172 -8.204049
-8.570780 -2.660143 -7.712298
-8.757850 -2.763022 -7.228220
-8.895590 -2.832078 -6.727631
-8.986130 -2.865896 -6.202116
-9.063790 -2.849444 -5.667816
-9.147340 -2.805325 -5.137132
-9.372690 -3.116091 -5.121196
-9.616770 -3.404240 -5.092922
-9.879610 -3.675866 -5.004553
-10.134100 -3.964286 -4.836945
-10.374530 -4.269194 -4.617821
-10.613000 -4.602551 -4.394360
-10.803730 -4.939858 -4.296939
-8.102200 1.561526 -7.481318
-8.180810 1.635411 -6.861554
-9.097390 1.514748 -6.000533
-9.731960 1.460954 -6.081438
-10.029750 1.583920 -6.168855
-10.342540 1.639821 -6.176680
-10.629190 1.490889 -6.166433
-10.733750 1.172219 -6.140230
-10.748760 0.859829 -6.047400
-10.538310 1.028737 -5.900811
-10.597210 0.948439 -5.557234
-10.242400 0.938367 -5.657142
-9.922510 0.850964 -5.858417
-9.542800 0.811168 -6.085975
-9.155650 0.802857 -6.528664
-8.755090 0.608406 -6.834560
-8.513910 0.452993 -7.199734
-8.352150 0.308730 -7.603658
-8.217130 0.172943 -7.970474
-8.119500 0.009988 -8.255328
-7.987840 -0.198728 -8.398761
-7.831780 -0.438406 -8.521339
-7.703850 -0.613563 -8.676841
-7.675830 -0.908962 -8.475209
-7.565830 -0.878272 -8.964009
-7.435200 -0.772550 -9.624117
-7.443620 -0.384444 -10.203496
-7.515800 -0.088322 -10.623937
-7.602150 0.146842 -10.991228
-9.455950 1.463851 -5.929636
-9.250190 1.504623 -5.798824
-10.822680 -5.043103 -3.761121
-10.957010 -5.190466 -3.216967
-11.176530 -5.306341 -2.714331
-11.441790 -5.409251 -2.224077
-11.760360 -5.495850 -1.767782
-12.110170 -5.572027 -1.337736
-12.491260 -5.645040 -0.934906
-8.516201 6.015841 -0.260585
-8.244115 5.764862 -0.686017
-7.996614 5.531376 -1.126934
-7.763346 5.308085 -1.575432
-7.550715 5.092598 -2.029699
-7.347567 4.873829 -2.482466
-7.165790 4.651076 -2.938708
-6.997527 4.416404 -3.394649
-6.838779 4.170125 -3.850076
-6.719333 3.925730 -4.319661
-6.604890 3.664435 -4.789936
-6.511250 3.410053 -5.268038
-6.444140 3.163248 -5.753901
-6.405160 2.925652 -6.239108
-6.387500 2.687226 -6.694723
-6.377300 2.474437 -7.090618
-6.386260 2.322162 -7.378380
-6.555640 2.100192 -7.462334
-6.794320 1.840087 -7.618187
-6.981810 1.644271 -7.833008
-6.916790 1.561372 -8.122706
-8.889680 1.571062 -6.278236
-8.602240 1.625243 -6.557966
-7.246940 -0.317299 -10.912022
-7.052470 -0.599860 -11.266274
-7.034770 -0.923157 -11.777059
-7.037530 -0.920468 -12.176265
-12.463530 -5.274299 -0.772157
-12.437180 -4.901112 -0.637545
-12.425320 -4.519622 -0.545915
-12.416150 -4.137564 -0.465687
-12.409930 -3.749198 -0.418631
-12.392630 -3.367415 -0.373381
-12.372910 -2.980320 -0.345598
-12.362860 -2.588488 -0.338138
-12.350090 -2.196382 -0.330330
-12.354020 -1.799908 -0.345932
-12.344530 -1.403532 -0.373488
-12.349980 -1.005745 -0.445842
-12.372750 -0.615083 -0.559209
-12.423380 -0.237388 -0.705849
-12.510950 0.128158 -0.884412
-12.614520 0.478026 -1.073960
-12.775951 0.792502 -1.285531
-12.708443 1.152229 -1.282783
-12.618130 1.495467 -1.275763
-12.487536 1.822255 -1.273197
-12.331108 2.143879 -1.262812
-12.012604 2.240511 -1.005714
-11.722057 2.429754 -0.779240
-11.425230 2.612222 -0.553324
-11.152680 2.846124 -0.370374
-10.895400 3.112185 -0.220875
-10.644280 3.391287 -0.107393
-10.404310 3.679049 -0.028309
-10.167790 3.970895 0.019864
-9.926780 4.257076 0.046530
-9.688540 4.547611 0.046826
-9.449790 4.838710 0.028286
-9.214530 5.135153 -0.018087
-8.974280 5.426260 -0.076771
-8.738440 5.719061 -0.156539
-7.048680 1.816445 -7.258404
-7.598900 1.630232 -7.313635
-8.457260 5.466092 -0.569599
-8.194920 5.227340 -0.997548
-7.956550 5.000790 -1.437037
-7.735100 4.779074 -1.882278
-7.533770 4.556935 -2.330884
-7.350000 4.327265 -2.782328
-7.178060 4.083807 -3.232518
-7.035330 3.832422 -3.686026
-6.923670 3.578732 -4.154826
-6.836910 3.318652 -4.629265
-6.770060 3.060444 -5.112685
-6.725760 2.814959 -5.609579
-6.691730 2.566192 -6.112932
-6.676870 2.340776 -6.611712
-6.641510 2.181136 -7.080855
-7.428260 -1.435095 -11.184015
-7.775700 -1.950197 -10.805408
-7.946140 -2.183568 -10.688357
-7.916480 -2.088117 -10.228694
-7.901940 -2.047069 -9.726639
-7.917420 -2.058634 -9.199686
-7.965410 -2.133920 -8.662425
-8.071740 -2.225791 -8.132238
-8.227230 -2.310603 -7.608283
-8.427590 -2.425483 -7.113384
-8.593370 -2.503370 -6.628926
-8.722900 -2.527967 -6.137482
-8.835450 -2.517132 -5.653446
-8.948380 -2.468388 -5.170988
-9.080580 -2.402498 -4.701553
-9.254090 -2.735604 -4.617055
-9.446210 -3.057141 -4.564399
-9.656220 -3.362422 -4.517424
-9.877640 -3.655856 -4.440880
-10.106230 -3.937840 -4.298449
-10.337090 -4.230292 -4.084966
-10.594200 -4.614744 -3.724171
-6.413990 1.324853 -9.451763
-6.499250 1.359858 -9.193371
-7.258180 -0.645508 -10.574021
-7.169940 -0.906458 -10.980561
-7.243370 -1.177753 -11.445782
-7.568260 1.787043 -6.720197
-8.335350 1.725132 -5.957792
-8.670860 1.680644 -5.764223
-8.937220 1.603062 -5.578140
-9.192710 1.527849 -5.453076
-9.466660 1.461564 -5.505691
-9.729220 1.455151 -5.644707
-10.002710 1.446692 -5.681215
-10.286230 1.614873 -5.685279
-10.580620 1.516265 -5.695089
-10.818310 1.298008 -5.709323
-10.958390 0.936465 -5.587310
-10.995360 0.762089 -5.161207
-10.588830 0.842927 -5.101067
-10.194440 0.768342 -5.157256
-9.828450 0.625179 -5.283238
-9.353410 0.401464 -5.439358
-8.972200 0.369112 -6.004180
-8.658930 0.254326 -6.417116
-8.437490 0.117441 -6.834357
-8.268740 -0.004608 -7.254479
-8.164260 -0.104674 -7.656425
-8.086900 -0.157723 -7.953636
-7.983290 -0.380806 -7.950443
-7.818910 -0.752407 -8.010025
-7.824670 -1.281246 -7.770339
-7.708540 -1.328028 -8.287649
-7.588180 -1.316620 -8.814438
-7.481210 -1.302256 -9.386236
-7.453930 -1.399243 -9.955558
-7.319750 -1.224705 -10.706766
-7.612890 -1.701194 -10.977807
-12.058350 -5.207931 -1.157515
-12.022190 -4.837777 -1.020661
-11.994150 -4.462894 -0.909104
-11.985260 -4.081333 -0.836442
-11.953220 -3.701272 -0.766473
-11.932050 -3.313585 -0.725231
-11.912750 -2.924386 -0.705732
-11.896240 -2.533148 -0.688052
-11.898890 -2.141061 -0.683000
-11.913130 -1.744538 -0.690416
-11.927130 -1.349330 -0.732509
-11.952710 -0.953705 -0.817631
-11.991210 -0.566811 -0.948870
-12.066310 -0.197972 -1.122753
-12.173670 0.153641 -1.308360
-12.331290 0.473691 -1.533205
-12.495850 0.765057 -1.750564
-12.467454 1.115766 -1.762578
-12.357041 1.457428 -1.743182
-12.225793 1.773418 -1.752391
-12.071441 2.080980 -1.748297
-11.777190 2.177765 -1.489966
-11.457710 2.306721 -1.235134
-11.163100 2.465235 -1.006681
-10.875710 2.665264 -0.801485
-10.610570 2.917503 -0.641190
-10.353410 3.181354 -0.514618
-10.104210 3.455573 -0.424652
-9.868380 3.739121 -0.370968
-9.628430 4.019412 -0.342248
-9.385280 4.301813 -0.337848
-9.153840 4.592520 -0.365002
-8.922790 4.884280 -0.415923
-8.689790 5.175008 -0.484622
-10.792230 -4.836833 -3.053500
-11.059310 -4.958528 -2.522843
-11.355710 -5.057323 -2.037464
-11.686970 -5.138668 -1.580211
-7.072780 2.029355 -6.653076
-7.722100 -1.813671 -10.320240
-7.677360 -1.733964 -9.803416
-7.669220 -1.715666 -9.254989
-8.210050 -2.027082 -7.017244
-8.385520 -2.132013 -6.548859
-8.530570 -2.180648 -6.107445
-8.654620 -2.160041 -5.669557
-8.787340 -2.112817 -5.233421
-8.938740 -2.057995 -4.804297
-9.109510 -2.018209 -4.398539
-9.228540 -2.316192 -4.266247
-9.385460 -2.639913 -4.129464
-9.560400 -2.969987 -4.030442
-9.738290 -3.290880 -3.975135
-9.928520 -3.592009 -3.917067
-10.121610 -3.869357 -3.814823
-10.308540 -4.126576 -3.649350
-10.502660 -4.344984 -3.296978
-10.720510 -4.506205 -2.825308
-10.985380 -4.613590 -2.344866
-11.295670 -4.695786 -1.878195
-11.644000 -4.770428 -1.435130
-7.062610 2.248792 -6.082605
-7.490390 2.001517 -6.092843
-8.179460 1.880824 -5.367176
-8.518080 1.788955 -5.215334
-8.842250 1.697017 -5.060895
-9.156140 1.591644 -4.971651
-9.521610 1.485284 -4.972624
-9.730360 1.440638 -5.283093
-9.954830 1.424890 -5.227727
-10.241020 1.438548 -5.205583
-10.562420 1.559368 -5.229752
-10.893100 1.510019 -5.277833
-10.985970 1.242577 -5.091498
-11.123860 1.029022 -4.822433
-9.871410 1.439399 -4.775880
-10.219900 1.448465 -4.720264
-10.557550 1.625112 -4.765963
-10.891340 1.699086 -4.876287
-11.035510 1.462678 -4.667954
-11.196940 1.241206 -4.444499
-11.344200 1.018254 -4.216648
-11.223130 0.829169 -4.508701
-11.068620 0.619042 -4.782975
-10.615940 0.714279 -4.603456
-10.236730 0.569699 -4.649940
-9.871360 0.403536 -4.695970
-9.530690 0.140917 -4.741919
-8.820800 -0.019646 -5.705560
-8.596920 -0.115202 -6.098253
-8.394360 -0.249308 -6.520244
-8.217540 -0.379156 -6.982765
-8.064250 -0.413777 -7.482282
-7.966200 -0.802401 -7.371931
-7.952050 -1.230832 -7.304274
-11.613310 -4.400084 -1.322275
-11.579010 -4.022196 -1.228868
-11.540760 -3.644303 -1.161809
-11.498730 -3.255147 -1.116181
-11.467510 -2.863949 -1.094428
-11.452370 -2.469657 -1.078339
-11.463050 -2.076289 -1.058232
-11.510130 -1.683069 -1.073335
-11.531930 -1.288251 -1.105702
-11.580900 -0.899590 -1.206205
-11.632870 -0.515930 -1.354165
-11.718990 -0.151605 -1.548692
-11.858450 0.175360 -1.764616
-12.019510 0.491762 -1.961638
-12.249810 0.739731 -2.226128
-12.197460 1.081346 -2.219941
-12.134140 1.412872 -2.222404
-11.997260 1.729181 -2.234696
-11.843700 2.040306 -2.244840
-11.514660 2.061202 -1.940804
-11.213730 2.209117 -1.716399
-10.909350 2.320947 -1.466391
-10.620370 2.505969 -1.248185
-10.338120 2.730009 -1.066530
-10.075360 2.985478 -0.936322
-9.828360 3.251892 -0.839184
-9.589570 3.523580 -0.774697
-9.345820 3.793851 -0.738944
-9.107980 4.072301 -0.739265
-8.877920 4.358146 -0.770528
-8.645370 4.644103 -0.823906
-8.416950 4.932346 -0.898711
-8.168460 4.702384 -1.326616
-7.945330 4.480686 -1.765907
-7.739550 4.255505 -2.208124
-7.554380 4.020026 -2.652554
-7.400030 3.777732 -3.102339
-7.280690 3.526233 -3.564174
-7.183210 3.266120 -4.030030
-7.112880 3.001223 -4.510205
-7.072340 2.746124 -5.008187
-7.055900 2.488846 -5.529648
-8.156130 -0.852110 -6.703532
-8.094450 -1.304759 -6.832106
-8.132950 -1.675854 -6.881657
-8.010200 -1.571302 -7.244664
-7.989260 -1.813884 -7.539910
-7.843360 -1.789398 -8.146083
-7.730890 -1.745823 -8.702066
-9.039520 -0.060493 -5.220324
-9.257730 -0.201406 -4.704078
-8.279840 -1.781771 -6.478864
-8.415310 -1.848552 -6.105102
-8.527430 -1.813429 -5.734415
-8.663720 -1.747196 -5.330156
-8.838030 -1.708306 -4.906723
-9.039370 -1.700814 -4.475822
-9.250640 -1.739941 -4.054958
-9.245930 -1.984197 -4.107298
-9.383300 -2.195129 -3.876838
-9.547090 -2.518649 -3.668488
-9.715130 -2.871583 -3.529060
-9.880970 -3.210130 -3.459328
-10.040030 -3.528040 -3.425364
-10.193520 -3.809490 -3.399461
-10.310660 -4.016711 -3.367710
-10.448430 -4.099464 -3.057633
-10.660280 -4.185141 -2.642010
-10.926880 -4.264706 -2.187546
-11.247260 -4.335125 -1.743605
-11.200050 -3.965907 -1.643040
-11.147190 -3.587626 -1.574390
-11.089630 -3.197718 -1.534600
-11.039950 -2.799632 -1.517222
-11.025860 -2.397675 -1.492484
-11.055650 -2.003058 -1.469732
-11.115490 -1.609354 -1.458058
-11.169900 -1.224848 -1.492170
-11.222730 -0.841451 -1.589141
-11.295890 -0.472839 -1.773762
-11.380470 -0.112654 -1.990564
-11.547490 0.190267 -2.228416
-11.733510 0.466312 -2.441965
-11.905020 0.734401 -2.609929
-12.002090 1.053856 -2.686896
-11.922970 1.372534 -2.695139
-11.819580 1.692113 -2.730770
-11.499400 1.856061 -2.636114
-11.239920 2.007206 -2.439347
-10.955620 2.104436 -2.194563
-10.666770 2.209062 -1.938230
-10.357240 2.337167 -1.676334
-10.079600 2.567476 -1.508591
-9.811290 2.804215 -1.366937
-9.567910 3.064027 -1.264013
-9.328930 3.325952 -1.189280
-9.090650 3.589098 -1.151235
-8.856740 3.858880 -1.154619
-8.624190 4.135749 -1.187324
-8.394420 4.415109 -1.244825
-8.168310 4.194293 -1.675949
-7.963910 3.971975 -2.113402
-7.783190 3.739729 -2.552941
-7.644430 3.498937 -3.003017
-7.534840 3.239546 -3.457943
-7.455410 2.975199 -3.928631
-7.416300 2.722446 -4.426721
-7.403010 2.471401 -4.943772
-7.427960 2.228513 -5.499074
-8.241710 -1.463941 -6.409070
-8.353300 -1.603968 -6.124871
-8.429940 -1.497068 -5.871380
-8.571030 -1.392839 -5.502636
-8.764620 -1.316280 -5.057726
-8.986350 -1.345192 -4.574035
-9.208700 -1.400685 -4.126129
-9.437180 -1.452725 -3.711726
-9.510480 -1.898940 -3.561471
-9.757800 -2.341682 -3.186565
-9.939730 -2.770230 -3.027401
-10.090470 -3.147507 -2.958046
-10.225890 -3.500455 -2.946022
-10.345790 -3.823182 -2.977272
-10.580130 -3.856566 -2.531787
-10.861980 -3.909555 -2.082031
-8.397090 3.920514 -1.611126
-8.197150 3.705676 -2.043623
-8.025710 3.483038 -2.477923
-7.895210 3.247212 -2.921102
-7.803140 2.988271 -3.364444
-7.755060 2.731305 -3.836973
-7.732510 2.481335 -4.340806
-7.747870 2.244208 -4.883435
-7.810670 2.022839 -5.453309
-8.094950 2.075559 -4.783377
-8.441620 1.946946 -4.647561
-8.782380 1.832568 -4.514633
-9.118360 1.700086 -4.428274
-9.468920 1.596153 -4.369333
-9.824680 1.521731 -4.262871
-10.216130 1.584352 -4.203448
-10.629980 1.678602 -4.298792
-10.932980 1.823318 -4.483221
-11.161290 1.653136 -4.293440
-11.283570 1.386870 -4.069408
-11.421570 1.170387 -3.907188
-11.516440 0.998063 -3.803894
-11.463060 0.852827 -3.954969
-11.328310 0.638997 -4.157203
-10.975670 0.623337 -4.187388
-10.715080 0.456247 -4.203648
-10.316830 0.395368 -4.107334
-10.008090 0.166915 -4.170766
-9.691010 -0.069048 -4.195619
-9.461860 -0.381167 -4.210980
-9.295420 -0.701599 -4.226398
-9.085230 -0.569149 -4.679044
-8.889810 -0.433549 -5.161816
-8.760080 -0.305968 -5.546453
-8.593930 -0.470881 -5.787435
-8.394840 -0.639300 -6.186971
-10.785840 -3.537310 -2.012191
-10.711230 -3.146587 -1.984073
-10.641690 -2.740894 -1.975650
-10.607600 -2.308562 -1.972667
-10.662960 -1.898712 -1.894254
-10.766410 -1.505286 -1.867607
-10.835930 -1.141222 -1.880607
-10.908210 -0.786438 -1.975381
-10.963260 -0.438459 -2.168615
-11.070600 -0.085764 -2.463121
-11.240940 0.237604 -2.700956
-11.479840 0.479375 -2.944657
-11.706290 0.717164 -3.090935
-11.788210 1.020232 -3.116406
-11.728120 1.320718 -3.142695
-11.590440 1.612044 -3.187212
-11.311920 1.823919 -3.171014
-11.025150 1.950336 -2.962743
-10.733410 2.042001 -2.711003
-10.429170 2.053772 -2.366063
-10.119470 2.201965 -2.128081
-9.827400 2.409367 -1.949367
-9.558510 2.634990 -1.807339
-9.321500 2.886998 -1.690426
-9.091470 3.141262 -1.605381
-8.860990 3.396901 -1.569790
-8.628360 3.653741 -1.577016
-8.711640 -0.831419 -5.281908
-10.301360 -1.725934 -2.361965
-10.443490 -1.372242 -2.268558
-10.559310 -1.045742 -2.257589
-10.636100 -0.747354 -2.314481
-10.658440 -0.440846 -2.549861
-11.241100 0.570364 -3.527620
-11.611030 0.730161 -3.596358
-11.628070 1.010557 -3.518724
-11.577150 1.266019 -3.569171
-10.879690 1.947502 -3.523259
-10.522810 1.871223 -3.140096
-10.195260 1.918751 -2.794397
-9.889110 2.070164 -2.558057
-9.587260 2.264943 -2.401115
-9.321980 2.486839 -2.253242
-9.095240 2.727560 -2.119703
-8.881800 2.973369 -2.016220
-8.658870 3.211233 -1.984077
-8.427370 3.450182 -1.998761
-8.263730 3.245021 -2.420807
-8.143390 3.024252 -2.839857
-8.088710 2.779863 -3.265970
-8.072920 2.528843 -3.724072
-8.070350 2.297270 -4.233639
-8.310380 -1.204054 -6.180394
-8.468890 -1.012287 -5.784400
-8.411370 2.141348 -4.092030
-8.764800 2.000060 -3.949614
-9.126010 1.843654 -3.887039
-9.466380 1.714432 -3.849926
-9.809560 1.636619 -3.786289
-10.999240 1.921468 -4.155796
-11.186630 1.820371 -3.816236
-11.427570 1.524490 -3.669499
-9.591450 -1.187801 -3.536226
-9.660500 -1.404039 -3.356881
-9.812500 -1.736717 -3.074076
-10.129080 -2.174994 -2.592554
-10.251910 -2.703998 -2.490383
-10.373980 -3.125897 -2.462384
-10.478710 -3.509312 -2.477238
-10.674700 1.795603 -3.881990
-10.245520 1.726953 -3.606234
-9.950790 1.795337 -3.167537
-9.670990 1.958132 -2.984813
-9.367570 2.134674 -2.855154
-9.094630 2.365239 -2.732077
-8.874250 2.599743 -2.531596
-8.708050 2.835962 -2.403602
-8.497380 3.031926 -2.392581
-8.386670 2.849746 -2.756523
-8.370680 2.616604 -3.115812
-8.405310 2.368396 -3.567915
-11.035070 0.473835 -3.836962
-10.758820 0.408481 -3.674744
-10.482380 0.162759 -3.624420
-10.125030 -0.037690 -3.646635
-9.869940 -0.289436 -3.721141
-9.648600 -0.559929 -3.766531
-9.505880 -0.857443 -3.801261
-9.424760 -1.146486 -3.807535
-9.213240 -1.054353 -4.199850
-8.979460 -0.947670 -4.674852
-10.998970 0.278672 -3.232445
-10.655320 -0.040783 -2.971186
-10.288190 -0.280627 -3.175694
-10.024020 -0.516722 -3.277186
-9.833520 -0.768951 -3.362728
-9.687720 -1.010639 -3.447953
-10.382840 -0.544235 -2.797301
-10.173770 -0.742796 -2.911905
-10.025310 -1.467771 -2.795408
-9.838830 -1.216140 -3.145111
-10.007740 -0.987215 -3.008519
-10.333750 -0.930804 -2.595068
-10.446330 -0.738365 -2.566195
-9.192530 2.004898 -3.351080
-9.512220 1.854189 -3.398031
-9.760310 1.761444 -3.447375
-8.808370 2.239932 -3.296312
-8.649980 2.538869 -2.902514
-8.575720 2.732360 -2.687236
-8.961690 1.531608 -7.072325
-9.201120 1.466158 -6.721162
-6.626960 1.408605 -8.856206
-6.941530 1.183296 -9.114326
-7.523060 -1.526456 -10.481603
-7.316770 -1.003853 -10.205990
-7.937450 1.820294 -6.089447
-10.201280 -1.193620 -2.659622
14.486526 8.934895 1.582840
-14.397746 -8.978628 0.278133
-14.228926 -9.337585 0.240154
-13.998724 -9.655100 0.124963
-13.797184 -9.996163 0.081912
-13.580734 -10.327686 0.036773
-13.316493 -10.614790 -0.084303
-13.073043 -10.926530 -0.132735
-12.793575 -11.191941 -0.255816
-12.526775 -11.483561 -0.306627
-12.249545 -11.765121 -0.358313
-11.947842 -11.998975 -0.482798
-11.651982 -12.260655 -0.535673
-11.341288 -12.473608 -0.659362
-11.029418 -12.715878 -0.712791
-10.710398 -12.948638 -0.766288
-10.385703 -13.132073 -0.888143
-10.053879 -13.346243 -0.941411
-9.716323 -13.551343 -0.994399
-9.381065 -13.706744 -1.112950
-9.033213 -13.894084 -1.165077
-8.680733 -14.072734 -1.216637
-8.337434 -14.201500 -1.330599
-7.976624 -14.363100 -1.380768
-7.612063 -14.516320 -1.430120
-7.262557 -14.619605 -1.538340
-6.891246 -14.756315 -1.585828
-6.516900 -14.884865 -1.632271
-6.162532 -14.963564 -1.733649
-5.782745 -15.075954 -1.777782
-5.400530 -15.180314 -1.820651
-5.042309 -15.235011 -1.914109
-4.655785 -15.323371 -1.954228
-4.267369 -15.403731 -1.992859
-3.906103 -15.434763 -2.077320
-3.514410 -15.499103 -2.112746
-3.121328 -15.555383 -2.146451
-2.757718 -15.562808 -2.220795
-2.362355 -15.602868 -2.250813
-1.966103 -15.634728 -2.278857
-1.600845 -15.618316 -2.341918
-1.203332 -15.633586 -2.365748
-0.805458 -15.640426 -2.387330
-0.439332 -15.599736 -2.437871
-0.041301 -15.589456 -2.454662
0.356508 -15.570446 -2.468901
0.722558 -15.504823 -2.505595
1.119276 -15.468033 -2.514406
1.515101 -15.422163 -2.520332
1.879867 -15.330741 -2.541765
2.273143 -15.266341 -2.541566
2.664738 -15.192471 -2.538121
3.026648 -15.074316 -2.542803
3.413976 -14.981116 -2.532491
3.798683 -14.878076 -2.518553
4.155739 -14.732234 -2.504930
4.534145 -14.609124 -2.483358
4.908838 -14.475844 -2.457788
5.258563 -14.301608 -2.424321
5.624607 -14.147748 -2.390396
5.985666 -13.983488 -2.352113
6.325460 -13.781175 -2.298084
6.675199 -13.596075 -2.250854
7.018685 -13.400735 -2.199206
7.346757 -13.173668 -2.126767
7.676784 -12.958538 -2.066646
7.999893 -12.734218 -2.002707
8.315278 -12.487367 -1.915678
8.624409 -12.246017 -1.844972
8.926496 -11.996767 -1.771266
9.228304 -11.733717 -1.672389
9.516294 -11.469827 -1.593401
9.797264 -11.199157 -1.512118
10.084920 -10.922661 -1.403605
10.352010 -10.639431 -1.318385
10.612220 -10.350371 -1.231497
10.885517 -10.062694 -1.115325
11.132187 -9.762804 -1.025669
11.372177 -9.457873 -0.934894
11.631024 -9.160766 -0.812796
11.857844 -8.846427 -0.720284
12.078184 -8.527687 -0.627138
12.322466 -8.222484 -0.500672
12.529986 -7.895491 -0.406709
12.731176 -7.564616 -0.312555
12.926076 -7.230013 -0.218348
13.149385 -6.914093 -0.089013
13.331815 -6.572446 0.004887
13.508035 -6.227463 0.098430
13.716379 -5.905459 0.228980
13.880259 -5.554147 0.321408
14.037969 -5.199824 0.413075
14.230763 -4.872110 0.543527
14.376103 -4.512051 0.633261
14.515223 -4.149254 0.721814
14.691685 -3.816054 0.850817
14.818255 -3.448027 0.936570
14.938475 -3.077501 1.020687
15.097533 -2.738941 1.146793
15.204843 -2.363644 1.227150
15.305543 -1.986073 1.305360
15.445814 -1.642232 1.426925
15.532994 -1.260343 1.500269
15.613204 -0.876416 1.570864
15.686294 -0.490535 1.638482
15.798728 -0.139669 1.750392
15.857048 0.249823 1.811318
15.907668 0.640959 1.868481
15.996701 0.996389 1.970819
16.031191 1.390411 2.019532
16.102608 1.748668 2.114356
16.119818 2.144913 2.153189
16.127888 2.541954 2.186457
16.170284 2.903406 2.266106
16.158954 3.301215 2.286845
16.137274 3.698900 2.300508
16.146399 4.061355 2.360361
16.102669 4.457446 2.358074
16.047149 4.851899 2.346787
16.018042 5.211382 2.380976
15.937432 5.600363 2.349446
15.878693 5.955238 2.363024
15.771043 6.334941 2.307983
15.649253 6.708208 2.239972
15.543977 7.046858 2.215820
15.393257 7.402919 2.119489
15.254179 7.724970 2.066581
15.074719 8.057305 1.939615
14.901866 8.356872 1.857313
14.695046 8.659243 1.700584
10.682250 7.461078 -6.333581
-11.914380 -7.287061 -5.987625
-11.633060 -7.239895 -5.533921
-11.433080 -7.270072 -5.170088
-11.293240 -7.318595 -4.804211
-12.141730 -7.535110 -4.987861
-12.226945 -7.869740 -4.922643
-12.460102 -7.806140 -4.950929
-12.523591 -7.590660 -5.044734
-12.350187 -7.430900 -5.286905
-12.166659 -7.280020 -5.571380
-12.028783 -7.102950 -5.851039
-11.986351 -6.937620 -6.287690
-12.256834 -6.643580 -6.609315
-12.282337 -6.239420 -6.816581
-12.216598 -5.822530 -6.829110
-12.035121 -5.488350 -6.877050
-11.772464 -5.249260 -6.921760
-11.467375 -5.085790 -6.979090
-11.489549 -4.872200 -7.170530
-11.361233 -4.712160 -7.364830
-11.318709 -4.436300 -7.644360
-11.255867 -4.207780 -7.969970
-11.156122 -3.985130 -8.293720
-11.116150 -3.823390 -8.773560
-10.939068 -3.559110 -8.963620
-10.749538 -3.288270 -9.126720
-10.478188 -3.120570 -9.396870
-10.295771 -2.968960 -9.792810
-10.117756 -2.890440 -10.249630
-10.032899 -2.977430 -10.760090
-9.952929 -3.125620 -11.248800
-9.835333 -3.455160 -11.631050
-9.555890 -3.819620 -11.917320
-9.049587 -3.913310 -12.093640
-8.530730 -3.681790 -12.159330
-8.167074 -3.335320 -12.273190
-7.982424 -3.083690 -12.653640
-7.822456 -2.974230 -13.181200
-7.665818 -2.756710 -13.700010
-7.638267 -2.542100 -14.213680
-7.742591 -2.198090 -14.631710
-7.994359 -1.862730 -14.969660
-8.365395 -1.458760 -15.159120
-8.459716 -1.121450 -15.549850
-8.313300 -0.894190 -16.017840
-7.744181 -0.423560 -15.655090
-7.746252 -0.211570 -16.397460
-7.376482 0.224280 -16.403310
-6.816134 0.346490 -16.546350
-6.322843 0.546440 -16.682950
-5.865128 0.672130 -16.669960
-5.326308 0.716110 -16.671440
-4.959384 0.851220 -16.415390
-4.609201 1.168910 -16.177010
-4.163630 1.385780 -15.905720
-3.667311 1.455150 -15.688470
-3.157329 1.377100 -15.565550
-2.698701 1.134820 -15.584280
-2.217525 0.845530 -15.674670
-2.124755 0.327380 -15.806230
-1.900538 -0.120210 -16.140880
-1.531509 0.100600 -16.455460
-1.179909 -0.048440 -16.295720
-0.737180 -0.248890 -16.301830
-0.400750 -0.624580 -16.275920
-0.169177 -0.977130 -16.680280
-0.150392 -1.377260 -16.833300
0.208265 -1.765200 -16.955910
0.099698 -1.863090 -17.708410
0.150318 -2.194650 -17.647860
0.310284 -2.417480 -17.509240
0.562187 -2.707740 -17.255540
0.810886 -2.856040 -16.989680
1.080917 -3.103730 -16.810050
1.185000 -3.372090 -16.554830
1.226448 -3.620630 -16.198180
1.224101 -3.869490 -15.855390
1.287942 -4.027700 -15.471920
1.408727 -4.028820 -15.033350
1.676960 -3.988900 -14.702090
2.047109 -3.846310 -14.451060
2.362877 -4.055150 -14.225170
2.502061 -4.445340 -14.221790
2.370361 -4.929180 -14.253000
2.079573 -4.656490 -13.910510
1.925753 -4.440880 -13.578350
1.623654 -4.154310 -13.646500
1.705068 -3.938950 -13.662270
1.631063 -3.817600 -13.931260
1.668417 -3.768000 -14.341890
1.681409 -3.855200 -14.795820
1.541876 -4.102210 -15.203130
1.298627 -4.235650 -15.581180
0.977086 -4.054280 -15.885910
0.832179 -3.551540 -16.062070
0.795416 -3.245000 -16.393440
0.707297 -2.944770 -16.444080
0.470087 -2.705210 -16.614760
0.205465 -2.830520 -16.885260
-0.021530 -2.779540 -17.297970
-0.066487 -2.536200 -17.567540
0.324070 -2.285730 -17.792170
0.169820 -2.015620 -17.520920
-0.057480 -1.734310 -17.239910
-0.283960 -1.423810 -16.895420
-0.467540 -0.974590 -16.623650
-0.663540 -0.524690 -16.283450
-0.870560 -0.123140 -15.911050
-0.924550 0.350080 -15.531590
-0.831050 0.829939 -15.160490
-0.632110 1.313200 -14.831140
-0.293160 1.757567 -14.590700
0.149990 2.144089 -14.435090
0.665280 2.443276 -14.362250
1.122730 2.792987 -14.359740
1.582910 3.191292 -14.374720
2.124280 3.480798 -14.451280
2.684440 3.682692 -14.625810
3.248070 3.864072 -14.823970
3.542830 4.260027 -14.764120
3.844300 4.459565 -14.637730
4.222850 4.597799 -14.475590
4.515310 4.650573 -14.344310
4.197530 4.802840 -13.904660
3.966510 4.996610 -13.388700
3.876620 5.048039 -12.816400
3.985340 5.007882 -12.316080
4.141760 4.961833 -11.877440
4.437890 4.844313 -11.547770
4.768880 4.688981 -11.331000
5.083900 4.447694 -11.189490
5.424900 4.187970 -11.168850
5.911840 4.186199 -11.278720
6.394220 4.161275 -11.430450
6.795500 4.104738 -11.356760
7.093250 4.101547 -11.095530
7.356060 4.023805 -10.767370
7.606370 4.202645 -10.467030
7.743380 4.274107 -9.964760
7.864910 4.386298 -9.536880
8.014860 4.404807 -9.146020
8.219030 4.410177 -8.908780
8.497280 4.431319 -8.826940
8.779050 4.623075 -8.785280
9.029550 4.391034 -8.761760
9.299640 4.291872 -8.685400
9.579080 4.247475 -8.546200
9.849210 4.228332 -8.384832
10.155890 4.233447 -8.220747
10.327740 4.071165 -7.868114
10.440740 3.724252 -7.626954
10.485170 3.356590 -7.367905
10.487820 3.060401 -6.996891
10.526740 2.705227 -6.578690
10.700870 2.473182 -6.339073
10.316000 2.327150 -6.666037
10.599310 2.701622 -6.890985
10.630150 3.218337 -7.048580
10.493030 3.584312 -7.303786
10.309890 3.915555 -7.521311
10.130940 4.169174 -7.771165
9.980140 4.330588 -8.088365
9.765430 4.398281 -8.421228
9.479390 4.367136 -8.732029
9.226270 4.497813 -9.018651
9.098260 4.741076 -9.294912
8.930430 5.038029 -9.507898
8.810260 5.373761 -9.610896
8.810570 5.786902 -9.587876
9.008540 6.134721 -9.324098
9.026790 6.413604 -8.956140
9.020250 6.603803 -8.541598
8.952310 6.821308 -8.114705
8.929170 7.042612 -7.794359
8.973090 7.191425 -7.534820
9.023100 7.281876 -7.241235
9.097260 7.372468 -6.973015
9.296760 7.348666 -6.705520
9.418690 7.441670 -6.312664
9.831010 7.626039 -6.143511
10.264300 7.655742 -6.250875
13.930717 8.923263 1.575729
13.390050 8.856999 1.496194
12.854030 8.788841 1.374895
12.334030 8.717777 1.205304
11.837290 8.649293 0.943683
11.368940 8.596078 0.629932
10.946980 8.550362 0.259991
10.575890 8.522137 -0.166380
10.267680 8.502909 -0.641071
10.023810 8.492101 -1.155511
9.851790 8.476908 -1.695792
9.748300 8.455996 -2.255711
9.720230 8.408375 -2.821707
9.753880 8.327439 -3.381394
9.834280 8.212951 -3.935330
9.948620 8.119511 -4.480717
10.092700 8.048930 -5.001894
10.270880 7.975354 -5.540609
10.336830 7.614298 -5.873435
-12.164160 -7.368203 -5.727058
-11.852750 -7.550600 -5.321372
-11.711100 -7.546404 -4.858920
-11.575770 -7.503646 -4.494436
-11.922370 -7.540160 -4.584809
-12.182936 -7.824540 -4.530583
-12.524620 -7.674190 -4.489554
-12.622821 -7.417840 -4.645440
-12.495055 -7.216890 -4.911046
-12.329899 -7.050570 -5.237220
-12.164301 -6.887600 -5.612751
-12.077573 -6.685500 -6.010940
-11.976778 -6.470020 -6.415343
-12.012954 -6.130450 -6.519609
-11.852653 -5.847930 -6.586140
-11.682661 -5.562130 -6.624730
-11.453194 -5.286440 -6.612590
-11.246136 -5.041520 -6.666660
-11.095073 -4.832370 -6.855480
-11.014954 -4.657910 -7.139650
-10.939823 -4.503060 -7.482700
-10.892945 -4.312890 -7.878120
-10.835480 -4.226600 -8.357220
-10.724573 -3.988240 -8.585280
-10.614110 -3.795090 -8.839390
-10.495891 -3.628350 -9.133220
-10.366410 -3.489450 -9.463910
-10.204387 -3.299090 -9.803230
-10.051036 -3.204510 -10.179190
-9.908447 -3.256790 -10.591960
-9.826526 -3.374040 -11.009700
-9.666741 -3.620530 -11.368060
-9.353501 -3.749270 -11.691300
-8.920486 -3.707650 -11.873560
-8.481458 -3.466260 -11.880920
-8.154069 -3.127130 -11.980900
-7.953239 -2.841100 -12.352660
-7.838528 -2.689210 -12.908150
-7.694951 -2.477310 -13.461800
-7.656014 -2.293440 -14.010200
-7.712686 -1.945400 -14.436510
-7.885773 -1.576170 -14.784040
-8.107460 -1.215400 -15.079840
-8.141327 -0.938870 -15.497400
-8.016875 -0.729180 -15.942750
-7.809349 -0.657410 -16.362190
-7.494758 -0.199240 -16.253310
-7.258704 0.110100 -16.286790
-6.933740 0.300660 -16.246720
-6.408217 0.444330 -16.306680
-5.827834 0.480940 -16.362210
-5.286401 0.460190 -16.426800
-4.785518 0.487300 -16.397790
-4.535761 0.867930 -16.070050
-4.159386 1.091060 -15.809260
-3.716236 1.171870 -15.615270
-3.238608 1.076410 -15.532230
-2.774757 0.821660 -15.625820
-2.476968 0.538930 -15.847320
-2.257467 0.377820 -16.247570
-2.079646 0.154270 -16.415020
-1.715944 -0.096530 -16.616840
-1.307035 -0.221330 -16.584010
-0.951123 -0.365690 -16.645560
-0.569467 -0.615260 -16.617540
-0.405085 -0.963780 -16.659850
-0.299460 -1.054340 -17.096120
-0.239967 -1.401020 -17.266720
-0.165203 -1.709760 -17.259790
-0.053272 -2.058640 -17.171800
0.217879 -2.301370 -17.091510
0.430575 -2.525250 -16.943300
0.659261 -2.688500 -16.712790
0.883939 -2.925550 -16.533700
1.000594 -3.200260 -16.290430
0.982887 -3.427350 -15.987430
1.002621 -3.634780 -15.611810
1.109225 -3.746550 -15.217070
1.249672 -3.799880 -14.794830
1.453326 -3.854640 -14.445730
1.806782 -3.919200 -14.193550
2.092695 -4.195380 -14.055140
2.301128 -4.627240 -14.019920
2.442132 -5.067200 -13.848900
1.810860 -4.787200 -13.805210
1.690489 -4.562240 -13.424960
1.464764 -4.175550 -13.322080
1.353369 -3.783390 -13.348580
1.336720 -3.644350 -13.715610
1.357826 -3.588990 -14.140680
1.376448 -3.646430 -14.638230
1.404340 -3.805770 -15.140010
1.354139 -3.908520 -15.600950
1.297551 -3.840730 -15.985480
1.170934 -3.704550 -16.336210
1.034152 -3.472370 -16.554470
0.870645 -3.164080 -16.801700
0.677197 -2.889740 -16.935360
0.474483 -2.783040 -17.123460
0.371747 -2.790240 -17.393510
0.395574 -2.519550 -17.495640
0.446590 -2.333060 -17.422230
0.319600 -2.168190 -17.248280
0.137890 -1.995250 -17.028380
-0.123270 -1.548920 -16.693350
-0.356520 -1.104070 -16.352820
-0.565900 -0.671310 -15.993450
-0.760430 -0.231650 -15.615460
-0.821990 0.236790 -15.242600
-0.765990 0.717986 -14.881910
-0.572910 1.184963 -14.562020
-0.245020 1.621903 -14.316380
0.201240 1.995244 -14.167280
0.678620 2.349358 -14.069100
1.163180 2.709528 -14.036200
1.635660 3.064007 -14.073220
2.134430 3.351051 -14.164040
2.656520 3.571364 -14.279290
3.177300 3.714922 -14.446160
3.467880 4.017007 -14.413040
3.777920 4.166485 -14.286750
4.051130 4.279897 -14.191020
4.333210 4.335226 -14.010180
4.086020 4.540344 -13.626150
3.908340 4.653810 -13.155850
3.928090 4.719626 -12.665290
4.023550 4.662623 -12.191740
4.197570 4.570384 -11.793770
4.407700 4.472638 -11.414800
4.649410 4.415466 -11.083030
4.974840 4.346239 -10.886710
5.374260 4.292541 -10.826020
5.820690 4.258469 -10.912440
6.279380 4.308356 -11.046210
6.655100 4.301600 -11.025330
6.901440 4.303359 -10.761290
7.174350 4.312271 -10.530520
7.357820 4.402693 -10.157900
7.488900 4.375019 -9.653980
7.622520 4.431424 -9.188050
7.782940 4.452971 -8.809810
8.021700 4.501398 -8.574030
8.311500 4.610668 -8.463220
8.597920 4.679665 -8.392470
8.831160 4.521423 -8.340900
9.082830 4.384960 -8.263030
9.330000 4.288031 -8.144304
9.578120 4.200244 -8.017935
9.866460 4.108741 -7.927192
10.015850 3.912523 -7.643874
10.149270 3.677487 -7.346374
10.272240 3.407999 -7.078911
10.370390 3.125135 -6.722228
10.437120 2.772935 -6.334013
10.464220 2.396859 -6.154358
-12.398200 -7.421649 -5.432549
-12.115460 -7.906934 -4.990888
-11.949260 -7.805537 -4.467780
-11.755320 -7.705413 -4.065485
-12.026690 -7.666400 -4.058167
-12.498778 -7.974670 -4.108395
-12.613771 -7.633120 -4.070010
-12.631860 -7.304180 -4.211824
-12.505252 -7.062960 -4.485029
-12.334137 -6.879680 -4.828297
-12.144849 -6.713610 -5.210686
-11.968006 -6.549910 -5.614425
-11.849396 -6.342690 -6.027280
-11.756371 -6.065180 -6.179615
-11.591540 -5.782480 -6.230090
-11.427580 -5.503530 -6.257410
-11.204409 -5.217670 -6.228570
-10.987732 -4.974820 -6.282040
-10.834489 -4.761350 -6.474640
-10.735425 -4.588170 -6.769360
-10.633044 -4.466420 -7.136960
-10.558312 -4.334320 -7.561010
-10.497368 -4.199340 -8.005840
-10.366642 -4.083890 -8.300460
-10.274145 -3.942180 -8.631430
-10.184739 -3.817770 -8.994340
-10.111277 -3.706400 -9.372340
-10.053926 -3.584530 -9.763460
-9.990849 -3.513340 -10.116720
-9.873530 -3.562860 -10.402480
-9.729845 -3.597550 -10.765450
-9.499105 -3.652170 -11.104760
-9.202973 -3.663320 -11.425060
-8.838504 -3.536470 -11.573710
-8.453058 -3.273510 -11.548860
-8.136256 -2.910090 -11.586240
-7.880590 -2.600200 -11.920330
-7.786237 -2.339830 -12.545880
-7.666562 -2.160620 -13.278500
-7.623169 -1.999330 -13.833970
-7.638203 -1.663330 -14.266300
-7.697041 -1.321280 -14.622140
-7.782557 -1.047380 -15.007890
-7.807182 -0.769820 -15.370680
-7.707355 -0.636840 -15.783850
-7.504897 -0.592790 -16.163000
-7.042908 -0.132340 -16.129660
-6.453181 0.208450 -16.065410
-5.884096 0.336440 -16.089390
-5.329917 0.281930 -16.182700
-4.847959 0.322860 -16.110470
-4.550803 0.627060 -15.873110
-4.185227 0.824060 -15.660510
-3.759598 0.858000 -15.525850
-3.306349 0.767580 -15.442010
-2.881237 0.546480 -15.608700
-2.538767 0.237360 -15.809230
-2.334950 -0.014240 -16.085220
-2.114455 -0.238520 -16.393270
-1.903124 -0.372380 -16.578060
-1.481339 -0.437750 -16.732180
-1.160720 -0.546890 -16.838240
-0.705632 -0.893320 -16.865610
-0.478614 -1.265370 -16.813060
-0.296339 -1.620510 -16.790830
-0.089781 -1.909400 -16.737800
0.108405 -2.176320 -16.671230
0.290475 -2.351380 -16.534120
0.487471 -2.531670 -16.404350
0.620926 -2.765180 -16.258720
0.707124 -3.004290 -16.027280
0.692226 -3.200410 -15.688710
0.709545 -3.270660 -15.159660
0.879486 -3.454930 -14.732120
1.054353 -3.580280 -14.356260
1.263907 -3.737950 -14.059880
1.559015 -3.973140 -13.911050
1.806534 -4.388030 -13.931410
1.962619 -4.807690 -14.034500
2.023265 -5.285810 -13.850870
1.688703 -5.019900 -13.425540
1.537799 -4.590240 -13.111480
1.365191 -4.129850 -12.941490
1.102118 -3.570550 -12.897330
1.083156 -3.413180 -13.457870
1.068259 -3.362540 -13.940110
1.045797 -3.360190 -14.485450
1.156295 -3.559740 -15.053810
1.208014 -3.643340 -15.516530
1.290813 -3.565810 -15.936250
1.297825 -3.413300 -16.249180
1.266762 -3.224730 -16.543390
1.175607 -3.079300 -16.834070
0.966419 -3.087570 -17.115490
0.830986 -2.882390 -17.287640
0.663664 -2.760700 -17.395270
0.639478 -2.590950 -17.191160
0.480950 -2.382560 -17.054150
0.330150 -2.204000 -16.838920
0.151370 -1.972360 -16.647930
-0.064000 -1.588940 -16.357000
-0.276780 -1.170900 -16.033400
-0.484990 -0.749300 -15.679190
-0.673180 -0.318710 -15.314670
-0.747770 0.144010 -14.944130
-0.702450 0.615450 -14.587100
-0.510440 1.072226 -14.268030
-0.186610 1.500583 -14.013610
0.231050 1.888864 -13.853180
0.685490 2.260749 -13.748780
1.166920 2.605648 -13.721740
1.634060 2.921859 -13.763480
2.086200 3.199682 -13.833700
2.528140 3.412375 -13.908370
2.915250 3.622024 -13.943790
3.379800 3.686403 -14.006380
3.661830 3.820929 -13.914900
3.946440 3.900377 -13.816120
3.881160 4.135832 -13.560890
4.005740 4.249947 -13.261600
3.903420 4.367623 -12.853550
3.903540 4.395482 -12.417240
4.019480 4.332367 -11.982980
4.107900 4.284806 -11.546340
4.261880 4.234647 -11.120590
4.484020 4.226909 -10.746660
4.783890 4.229387 -10.493760
5.172090 4.219252 -10.375350
5.600780 4.239630 -10.412660
6.030140 4.281004 -10.494060
6.414970 4.383477 -10.528180
6.679510 4.419566 -10.330380
6.927070 4.457113 -10.108720
7.072950 4.381956 -9.669500
7.223210 4.401619 -9.226340
7.370820 4.425392 -8.774110
7.545290 4.487806 -8.398290
7.780390 4.576973 -8.170090
8.089450 4.656554 -8.082700
8.391590 4.677567 -7.975320
8.644690 4.541263 -7.910470
8.900540 4.424222 -7.852364
9.119280 4.303098 -7.745163
9.337080 4.181290 -7.640251
9.579780 4.039788 -7.596509
9.742070 3.876245 -7.297956
9.892850 3.669608 -7.002977
10.052320 3.418902 -6.697537
10.192600 3.110510 -6.249165
10.390090 2.781998 -5.939190
10.520010 2.430112 -5.741732
-12.663100 -7.391944 -5.160963
-12.577820 -7.914750 -4.898190
-12.135690 -7.930376 -3.942542
-11.926980 -7.864170 -3.585524
-12.284585 -7.858220 -3.639299
-12.689008 -7.898620 -3.625180
-12.573015 -7.563120 -3.597373
-12.532828 -7.244020 -3.747688
-12.408720 -6.985300 -4.042237
-12.238723 -6.779070 -4.394748
-12.048401 -6.605160 -4.793322
-11.861480 -6.427330 -5.213354
-11.668640 -6.274470 -5.637467
-11.541050 -6.000560 -5.790745
-11.369494 -5.708050 -5.817603
-11.205077 -5.423030 -5.837026
-10.983515 -5.130480 -5.794610
-10.778728 -4.862490 -5.836940
-10.614727 -4.644610 -6.042010
-10.490145 -4.465950 -6.369230
-10.372221 -4.337000 -6.756700
-10.278295 -4.214700 -7.194180
-10.179116 -4.121500 -7.663200
-10.044080 -3.997940 -7.973030
-9.935095 -3.897270 -8.344790
-9.846908 -3.798560 -8.759610
-9.785202 -3.729280 -9.206240
-9.779131 -3.649440 -9.660340
-9.819195 -3.613300 -9.986910
-9.667955 -3.628700 -10.154030
-9.532608 -3.616450 -10.493370
-9.373792 -3.621540 -10.840190
-9.147907 -3.559390 -11.108150
-8.817792 -3.385030 -11.205840
-8.433415 -3.067040 -11.096520
-8.073928 -2.677000 -11.095930
-7.789665 -2.326710 -11.362650
-7.613510 -2.048940 -11.757150
-7.566442 -1.813200 -13.196420
-7.547215 -1.685800 -13.693650
-7.482418 -1.414190 -14.067500
-7.420734 -1.112010 -14.425940
-7.443762 -0.891960 -14.834360
-7.440992 -0.702100 -15.217880
-7.384853 -0.574080 -15.569590
-7.250553 -0.561000 -15.896370
-6.881703 -0.267470 -15.857920
-6.401768 0.013770 -15.811460
-5.909927 0.220760 -15.813340
-5.412966 0.275260 -15.859090
-4.879545 0.181460 -15.820120
-4.609250 0.542830 -15.542890
-4.216965 0.710920 -15.368380
-3.763642 0.672930 -15.272780
-3.293390 0.474230 -15.299440
-2.791533 0.317410 -15.410930
-2.477531 -0.001840 -15.569950
-2.157146 -0.253140 -15.866600
-1.999052 -0.216120 -16.163300
-1.719351 -0.169270 -16.503920
-1.462717 -0.229440 -16.429570
-1.050729 -0.414050 -16.469480
-0.791549 -0.609870 -16.456970
-0.636725 -0.980930 -16.365480
-0.429149 -1.292460 -16.303570
-0.236470 -1.592140 -16.226750
-0.042703 -1.874310 -16.154050
0.140773 -2.141440 -16.099070
0.321733 -2.371620 -16.122070
0.361384 -2.469960 -15.916110
0.440887 -2.695680 -15.756990
0.480866 -2.828060 -15.427800
0.417075 -2.788510 -14.901560
0.689917 -3.194790 -14.162360
0.859152 -3.380760 -13.884030
1.060318 -3.603610 -13.643230
1.323048 -3.934220 -13.581100
1.497045 -4.386000 -13.684810
1.561202 -4.893340 -13.887010
1.573930 -5.134280 -13.512570
1.697544 -5.026080 -12.992980
1.452996 -4.580110 -12.750800
1.288794 -4.099260 -12.546990
1.028870 -3.617000 -12.394720
0.795263 -3.134390 -13.210120
0.810062 -3.096770 -13.648260
0.758503 -3.040350 -14.030540
0.976010 -3.349560 -15.082360
1.031287 -3.441840 -15.452850
1.061893 -3.358920 -15.829560
1.120335 -3.218550 -16.126720
1.113327 -3.030460 -16.366450
1.115719 -2.902160 -16.662610
0.959387 -2.824360 -16.850670
0.865575 -2.767940 -17.010360
0.741974 -2.726870 -17.089700
0.637289 -2.612130 -16.981580
0.540170 -2.452670 -16.760960
0.362060 -2.246710 -16.516970
0.166700 -1.963200 -16.275130
-0.034560 -1.594070 -15.983270
-0.239900 -1.207600 -15.675250
-0.434260 -0.800680 -15.341950
-0.625740 -0.386850 -14.986980
-0.710740 0.062980 -14.620790
-0.673880 0.525780 -14.265860
-0.496800 0.983686 -13.945040
-0.166560 1.396831 -13.685890
0.219810 1.806902 -13.497520
0.676660 2.167517 -13.398220
1.141860 2.499794 -13.370280
1.586140 2.792527 -13.426480
1.979080 3.037004 -13.496130
2.325550 3.235204 -13.498530
2.688820 3.390168 -13.504680
3.015630 3.530416 -13.494050
3.308950 3.645419 -13.414140
3.570300 3.727651 -13.306660
3.686390 3.886867 -13.119220
3.748180 4.030596 -12.866900
3.805970 4.083329 -12.537220
3.811980 4.110669 -12.142350
3.868820 4.080497 -11.708760
3.958800 4.042951 -11.249500
4.063140 4.025432 -10.794860
4.247720 4.049637 -10.385910
4.520380 4.080852 -10.076180
4.907200 4.118214 -9.909290
5.331320 4.166456 -9.900900
5.746980 4.228503 -9.947760
6.106450 4.292388 -9.935780
6.376530 4.344831 -9.770600
6.607480 4.379157 -9.539650
6.792320 4.377945 -9.190800
6.953540 4.376454 -8.754170
7.122620 4.417121 -8.326620
7.309020 4.495277 -7.935280
7.571430 4.599057 -7.682350
7.924620 4.704370 -7.624890
8.215090 4.670350 -7.530680
8.477560 4.524965 -7.472195
8.734940 4.389326 -7.402410
8.951970 4.265453 -7.330689
9.124300 4.143814 -7.184300
9.318240 4.005652 -7.031734
9.488910 3.837315 -6.782254
9.656160 3.645582 -6.458216
9.820670 3.408569 -6.109183
10.007410 3.054387 -5.563300
10.296110 2.676123 -5.413670
10.459840 2.315390 -5.287153
10.252850 2.009492 -5.270849
10.261910 2.070567 -5.740896
10.358870 2.154274 -6.180778
10.635420 2.386726 -6.495797
10.659670 2.725603 -6.573146
10.418410 3.277550 -6.669212
10.214340 3.679037 -7.046804
9.964260 3.961789 -7.300924
9.756480 4.149297 -7.570806
9.630650 4.304319 -7.887741
9.453510 4.417560 -8.183940
9.236300 4.481072 -8.458639
9.018570 4.608316 -8.686927
8.913210 4.877946 -8.916409
8.878670 5.186787 -9.096446
8.820630 5.544776 -9.169014
8.831410 5.858202 -9.149800
8.920950 6.071735 -9.110515
8.886130 6.212659 -8.823780
8.840950 6.375487 -8.439488
8.769200 6.559650 -7.997611
8.700400 6.754441 -7.630177
8.631810 6.952053 -7.300480
8.598430 7.143074 -7.013808
8.678710 7.314308 -6.804113
8.891290 7.405779 -6.621903
8.983480 7.458808 -6.239454
9.064060 7.527567 -5.841130
9.438550 7.598999 -5.882158
9.802200 7.677835 -5.895544
-12.081910 -8.278616 -4.315236
-12.399810 -8.100556 -4.294980
-7.615355 -1.927850 -12.641510
-7.459968 -1.750110 -11.981260
10.110330 7.812457 -5.965230
10.010630 7.902597 -5.615280
9.825040 7.927538 -5.250561
9.676880 7.983029 -4.677974
9.558840 8.077241 -4.096522
9.479540 8.178856 -3.506977
9.454260 8.237078 -2.908185
9.491520 8.261599 -2.308413
9.600930 8.268186 -1.722982
9.789020 8.260445 -1.150669
10.052690 8.247898 -0.609834
10.386000 8.240014 -0.108412
10.778050 8.247212 0.338251
11.227930 8.267862 0.738337
11.718390 8.301821 1.085613
12.256790 8.348755 1.367261
12.832970 8.421886 1.564497
13.426430 8.509217 1.705021
14.039540 8.601757 1.788370
14.209097 8.258430 1.906915
14.342961 7.931766 2.056692
14.522225 7.584519 2.086692
14.674397 7.246164 2.184727
14.861514 6.905277 2.196916
14.997279 6.561164 2.261325
15.149138 6.211776 2.262594
15.270388 5.854811 2.272961
15.346234 5.509005 2.249971
15.434084 5.157076 2.219405
15.471535 4.812533 2.216203
15.551042 4.461395 2.181375
15.601948 4.108719 2.162551
15.576671 3.767637 2.157948
15.582786 3.403238 2.165571
15.576733 3.038131 2.144555
15.529743 2.682724 2.143639
15.525397 2.308299 2.151233
15.512164 1.933238 2.133594
15.460433 1.564540 2.138483
15.437365 1.180810 2.085941
15.385229 0.808144 2.079886
15.359523 0.425039 2.038283
15.332133 0.053633 1.972720
15.273669 -0.303218 1.924869
15.207668 -0.657879 1.891519
15.142755 -1.018445 1.864379
15.049446 -1.385384 1.776310
14.972110 -1.757688 1.758870
14.884650 -2.149680 1.687376
14.791488 -2.543124 1.623442
14.686260 -2.929099 1.546256
14.560433 -3.326493 1.462630
14.394705 -3.671788 1.339829
14.252495 -4.049220 1.257674
14.075109 -4.393020 1.146069
13.879930 -4.699131 0.995873
13.700569 -5.028190 0.880068
13.516676 -5.364606 0.770585
13.334377 -5.683469 0.646611
13.136940 -5.999478 0.525250
12.946100 -6.323809 0.405867
12.755190 -6.645680 0.292269
12.548080 -6.969041 0.187470
12.346130 -7.284506 0.073115
12.143460 -7.604735 -0.025617
11.928350 -7.908686 -0.146775
11.709610 -8.210861 -0.249637
11.479420 -8.516840 -0.365140
11.248980 -8.819808 -0.469912
11.014030 -9.116592 -0.565767
10.770990 -9.412417 -0.665209
10.526140 -9.701167 -0.767754
10.278560 -9.984824 -0.864435
10.022460 -10.272134 -0.943747
9.762670 -10.555052 -1.033595
9.497040 -10.831138 -1.117250
9.222950 -11.095932 -1.197281
8.940830 -11.360013 -1.279107
8.662416 -11.620503 -1.351971
8.374672 -11.871066 -1.413722
8.075263 -12.114622 -1.489471
7.787516 -12.368890 -1.545616
7.482417 -12.605412 -1.602781
7.176436 -12.846280 -1.646206
6.861947 -13.083931 -1.704408
6.545184 -13.310100 -1.741173
6.229957 -13.559180 -1.751846
5.892356 -13.772529 -1.806582
5.546150 -13.971984 -1.835968
5.181553 -14.197959 -1.840239
4.785338 -14.304801 -1.912074
4.406316 -14.435463 -1.932970
4.010686 -14.543149 -1.954195
3.636110 -14.630692 -1.993555
3.254482 -14.726779 -2.005063
2.870290 -14.792936 -2.025287
2.494520 -14.847852 -2.053412
2.114210 -14.894788 -2.075318
1.734154 -14.945998 -2.068171
1.358785 -14.985189 -2.085902
0.981298 -15.033908 -2.080740
0.598259 -15.068802 -2.070229
0.224694 -15.097403 -2.074986
-0.154490 -15.118297 -2.072301
-0.534187 -15.132462 -2.033755
-0.910245 -15.145541 -2.016412
-1.283983 -15.145276 -1.986457
-1.662544 -15.135172 -1.947192
-2.038160 -15.128308 -1.911822
-2.411430 -15.113142 -1.869204
-2.787253 -15.088406 -1.813076
-3.163225 -15.051062 -1.780196
-3.534824 -15.024923 -1.716769
-3.911826 -14.978700 -1.654873
-4.286912 -14.927573 -1.597306
-4.659445 -14.867022 -1.544779
-5.030824 -14.798018 -1.475741
-5.402792 -14.724037 -1.410592
-5.768643 -14.652656 -1.335140
-6.139584 -14.567135 -1.263255
-6.507800 -14.468490 -1.191064
-6.872760 -14.366551 -1.121033
-7.241786 -14.264705 -1.042172
-7.599585 -14.146991 -0.955455
-7.961876 -14.023006 -0.886644
-8.327858 -13.897008 -0.805684
-8.672580 -13.762759 -0.716612
-9.036073 -13.623606 -0.637643
-9.395678 -13.486933 -0.554997
-9.739347 -13.338143 -0.465370
-10.090394 -13.155761 -0.409260
-10.452281 -13.030838 -0.329779
-10.801524 -12.879698 -0.223067
-11.148221 -12.677643 -0.169095
-11.473800 -12.464668 -0.129138
-11.867936 -12.298794 -0.083493
-12.194137 -12.017145 -0.070555
-12.333070 -11.575447 0.056118
-12.644015 -11.284489 0.128001
-12.707430 -10.792099 0.074692
-12.916907 -10.483006 0.104918
-13.124457 -10.170284 0.098770
-13.330533 -9.895115 0.057472
-13.513390 -9.588374 0.037328
-13.684596 -9.268841 -0.000707
-13.904657 -8.998026 -0.034094
-14.051553 -8.657200 -0.016210
-13.761945 -8.422451 -0.456311
-13.414174 -8.217841 -0.847349
-13.142642 -8.041305 -1.274024
-12.941737 -7.937169 -1.727197
-12.843300 -7.879688 -2.176154
-12.824190 -7.820695 -2.626450
-12.824830 -7.740520 -3.077174
-12.774290 -7.629390 -3.502999
-12.804290 -7.408329 -3.894519
-12.880630 -7.314046 -4.373201
-12.771090 -7.329288 -4.776828
10.620420 2.310892 -6.119128
10.604440 2.648224 -6.162001
10.476680 3.064217 -6.240225
9.845600 3.854218 -6.883514
9.602860 4.064541 -7.128010
9.403090 4.224524 -7.393519
9.308560 4.354545 -7.709111
9.185840 4.452590 -7.980406
8.994930 4.567164 -8.172847
8.792490 4.723263 -8.336604
8.675990 4.992820 -8.531548
8.690410 5.310022 -8.672280
8.689050 5.651448 -8.720855
8.753530 5.973586 -8.767688
10.023750 3.621436 -6.560913
10.115640 3.425353 -6.226608
9.373050 7.852006 -4.765381
9.279120 7.927499 -4.151664
9.241600 7.980049 -3.548306
9.244060 8.012107 -2.938611
9.306950 8.017822 -2.331758
9.436680 8.007436 -1.730786
9.641160 7.984787 -1.149244
9.918810 7.958962 -0.598199
10.264900 7.937158 -0.082787
10.676840 7.923451 0.386744
11.142950 7.921205 0.806173
11.660970 7.931886 1.178371
12.241890 7.965062 1.482127
12.875700 8.045018 1.704694
13.520650 8.152028 1.874155
8.686390 6.136930 -8.313062
8.584310 6.330891 -7.802404
8.487520 6.520428 -7.379910
8.401060 6.724318 -6.998673
8.357560 6.932054 -6.659411
8.382210 7.168969 -6.399970
8.527860 7.321042 -6.183995
8.629050 7.427369 -5.858494
8.751750 7.476203 -5.536578
8.805770 7.511100 -5.125131
9.163300 7.607726 -5.436482
9.528880 7.748146 -5.423313
0.842741 -3.176190 -14.712770
0.666541 -2.920940 -14.321730
2.048949 -5.304690 -13.313660
1.682965 -5.295960 -13.121750
0.506372 -2.964660 -14.369770
0.299343 -2.632350 -14.334300
0.780893 -3.173710 -12.711700
0.732270 -3.167740 -12.202870
13.636710 7.787628 1.954269
13.794130 7.424976 2.049580
13.986110 7.079878 2.086995
14.191840 6.739743 2.137465
14.382320 6.406108 2.138993
14.554340 6.072541 2.142419
14.696170 5.747822 2.100128
14.790530 5.419219 2.053101
14.876010 5.100348 1.999842
14.945260 4.781524 1.958510
15.027210 4.464440 1.937203
15.083290 4.156044 1.926686
15.055180 3.843780 1.918422
15.038840 3.511479 1.925806
15.000710 3.182183 1.950817
14.950620 2.845282 1.997986
14.939280 2.484583 2.058313
14.916580 2.116801 2.112891
14.883170 1.742068 2.132435
14.860560 1.366667 2.144770
14.831910 0.987792 2.146474
14.828140 0.607285 2.135160
14.844060 0.234948 2.127348
14.846490 -0.103673 2.125662
14.777570 -0.398813 2.115593
14.684630 -0.739259 2.103326
14.617760 -1.109101 2.102727
14.539590 -1.491802 2.070461
14.479420 -1.893114 2.046490
14.411800 -2.298626 2.000425
14.328980 -2.716974 1.958178
14.222400 -3.124296 1.892226
14.064920 -3.510450 1.816694
13.878190 -3.835857 1.669035
13.691450 -4.161449 1.533066
13.497690 -4.481784 1.410279
13.309290 -4.805549 1.295414
13.125740 -5.104796 1.153826
12.930270 -5.410672 1.017266
12.738190 -5.724822 0.898377
12.546650 -6.031683 0.767700
12.353450 -6.338145 0.639585
12.146740 -6.649924 0.523393
11.945460 -6.960335 0.414130
11.741570 -7.263494 0.294172
11.531900 -7.562829 0.180275
11.311770 -7.862342 0.071661
11.093520 -8.159313 -0.040081
10.867440 -8.447905 -0.151091
10.637590 -8.745350 -0.240057
10.403130 -9.034330 -0.336762
10.165060 -9.318780 -0.433362
9.922600 -9.599430 -0.525659
9.676470 -9.878770 -0.612805
9.426170 -10.160730 -0.686721
9.173370 -10.436580 -0.757409
8.908300 -10.699860 -0.833668
8.640130 -10.961690 -0.899351
8.370873 -11.220210 -0.961181
8.090932 -11.470740 -1.015622
7.813013 -11.723880 -1.069929
7.532466 -11.975570 -1.124409
7.252464 -12.229100 -1.159651
6.965585 -12.484120 -1.193507
6.682223 -12.745080 -1.225378
6.387402 -12.994580 -1.244648
6.076230 -13.229720 -1.282184
5.757164 -13.477325 -1.308083
5.413910 -13.717760 -1.326073
5.037404 -13.906727 -1.379079
4.639129 -14.061203 -1.395371
4.239905 -14.172388 -1.428403
3.848515 -14.250853 -1.463235
3.465736 -14.334169 -1.493036
3.085060 -14.379842 -1.530492
2.711846 -14.417780 -1.559635
2.339679 -14.452820 -1.602745
1.963443 -14.479810 -1.624192
1.585357 -14.498380 -1.645313
1.211538 -14.531290 -1.656992
0.843114 -14.550470 -1.684295
0.473763 -14.578080 -1.691691
0.099634 -14.606820 -1.700244
-0.264439 -14.617900 -1.702791
-0.633928 -14.617980 -1.691229
-1.002937 -14.625420 -1.666590
-1.367476 -14.625460 -1.635578
-1.733532 -14.614530 -1.595089
-2.101563 -14.602460 -1.563392
-2.464975 -14.589580 -1.516640
-2.831412 -14.567750 -1.465397
-3.201400 -14.541090 -1.414583
-3.569652 -14.507920 -1.364334
-3.934566 -14.469670 -1.299907
-4.302584 -14.424340 -1.233681
-4.672237 -14.374050 -1.164004
-5.034942 -14.308940 -1.099351
-5.398139 -14.250380 -1.012637
-5.766940 -14.176163 -0.943443
-6.129065 -14.109125 -0.854783
-6.493278 -14.024961 -0.773081
-6.863329 -13.933099 -0.694373
-7.223570 -13.837003 -0.610024
-7.589145 -13.736224 -0.512918
-7.953652 -13.625161 -0.428079
-8.311646 -13.513226 -0.346192
-8.678160 -13.386685 -0.257138
-9.037459 -13.272866 -0.159712
-9.400737 -13.153940 -0.073604
-9.760352 -13.024567 0.011314
-10.120923 -12.917412 0.111997
-10.480582 -12.790400 0.183691
-10.834700 -12.629404 0.242174
-11.177587 -12.437464 0.289490
-11.498165 -12.220026 0.289239
-11.851169 -12.018803 0.245540
-11.948107 -11.695007 -0.055693
-12.158769 -11.292879 0.367727
-12.359616 -10.950688 0.233408
-12.530720 -10.474276 0.444929
-12.627122 -10.121491 0.206279
-12.860092 -9.813390 0.075909
-13.077545 -9.569343 -0.016675
-13.246956 -9.268322 -0.117028
-13.411108 -8.960902 -0.239014
-13.583273 -8.673153 -0.359859
-13.336488 -8.519859 -0.845655
-13.051492 -8.343372 -1.240545
-12.841421 -8.237756 -1.659122
-12.823258 -8.229355 -2.110159
-12.747056 -8.223832 -2.527796
-12.715470 -8.183630 -2.991326
-12.673170 -8.087958 -3.422776
-13.168128 -7.735267 -3.796055
-12.937979 -7.722055 -4.179657
-12.777219 -7.792302 -4.595509
8.535750 5.797596 -8.129458
8.388550 6.075049 -7.558579
8.285840 6.292862 -7.113567
8.204270 6.506255 -6.721570
8.147160 6.717857 -6.342325
8.150310 6.944166 -6.013104
8.230530 7.160428 -5.748438
8.368620 7.278569 -5.461769
8.525110 7.379001 -5.296913
8.506430 7.330674 -4.920820
8.524860 7.323148 -4.434257
8.830410 7.485907 -4.650900
9.091630 7.676737 -4.808940
10.597460 2.198833 -5.678563
10.722890 2.545981 -5.629090
10.470350 2.909736 -5.795119
10.164330 3.279837 -5.828498
9.758300 3.571403 -5.853994
9.716800 3.695568 -6.180503
9.640200 3.842413 -6.474865
9.458810 4.012066 -6.753012
9.224980 4.186900 -6.975128
9.056070 4.336045 -7.232984
9.015000 4.507432 -7.809599
8.589460 4.746862 -7.931547
8.458920 5.016853 -8.042416
8.511470 5.373142 -8.161417
12.931000 7.656532 1.817563
13.063080 7.253462 1.881646
13.314650 6.889930 1.945821
13.573160 6.564908 1.967562
13.799600 6.242676 1.977097
14.005830 5.937210 1.938389
14.164280 5.636359 1.880176
14.272420 5.337911 1.795548
14.361540 5.045900 1.708367
14.442880 4.750675 1.661784
14.551550 4.462605 1.638775
14.619990 4.191808 1.652259
14.576550 3.927771 1.628223
14.511470 3.630183 1.642647
14.449530 3.317722 1.674245
14.394560 2.994071 1.765067
14.363240 2.650016 1.880097
14.333930 2.292764 1.988705
14.301990 1.926531 2.072931
14.282770 1.543884 2.127671
14.266630 1.158723 2.166834
14.289060 0.767179 2.200689
14.358100 0.380561 2.217042
14.506720 0.059289 2.194775
14.324360 -0.108246 2.222169
14.201210 -0.426006 2.239433
14.119360 -0.793008 2.239460
14.059970 -1.187942 2.244853
14.007300 -1.596479 2.240714
13.959680 -2.012619 2.231036
13.891970 -2.433553 2.193595
13.792450 -2.848683 2.154339
13.632000 -3.218466 2.047914
13.447680 -3.558847 1.971091
13.260920 -3.881566 1.858339
13.077570 -4.192716 1.741797
12.884500 -4.490332 1.599922
12.698570 -4.779364 1.454934
12.508230 -5.075176 1.305584
12.317380 -5.373336 1.170503
12.128480 -5.681388 1.052503
11.936790 -5.995571 0.940584
11.739740 -6.293750 0.822840
11.535660 -6.591421 0.693338
11.332500 -6.888493 0.573493
11.129190 -7.184396 0.465646
10.913790 -7.476540 0.352109
10.702700 -7.772557 0.254249
10.481630 -8.055657 0.142264
10.256420 -8.347730 0.055324
10.028000 -8.630500 -0.041742
9.795000 -8.913960 -0.131523
9.559600 -9.192660 -0.216205
9.319400 -9.467790 -0.303883
9.079110 -9.749590 -0.364397
8.832970 -10.018170 -0.434238
8.576630 -10.282410 -0.497245
8.315740 -10.541260 -0.555171
8.051162 -10.800140 -0.599316
7.781260 -11.049780 -0.644400
7.512252 -11.303250 -0.687468
7.250729 -11.562610 -0.719264
6.984171 -11.822110 -0.755019
6.715703 -12.086940 -0.779886
6.452966 -12.356450 -0.796072
6.173306 -12.620650 -0.813796
5.889480 -12.895280 -0.819749
5.584665 -13.160570 -0.843806
5.240547 -13.389990 -0.888517
4.876674 -13.609290 -0.918202
4.482826 -13.751060 -0.933408
4.079166 -13.848510 -0.963891
3.685781 -13.909140 -0.999855
3.304153 -13.949540 -1.047565
2.928293 -13.985590 -1.078065
2.558014 -13.995920 -1.129323
2.194090 -14.013370 -1.180449
1.821408 -14.016470 -1.218347
1.446385 -14.018030 -1.240122
1.074319 -14.015060 -1.277766
0.708797 -14.044470 -1.307349
0.344930 -14.062060 -1.346064
-0.017286 -14.083620 -1.362373
-0.375534 -14.091730 -1.370111
-0.734653 -14.087870 -1.359782
-1.094736 -14.082170 -1.350044
-1.452539 -14.071880 -1.323670
-1.807476 -14.063600 -1.282448
-2.171807 -14.044910 -1.256214
-2.528906 -14.032590 -1.211277
-2.885188 -14.018080 -1.154872
-3.247427 -13.993000 -1.103808
-3.608402 -13.967250 -1.042619
-3.967273 -13.934930 -0.973031
-4.328241 -13.890950 -0.910377
-4.687889 -13.841400 -0.841658
-5.047014 -13.788290 -0.760142
-5.408194 -13.732330 -0.675711
-5.771688 -13.669320 -0.590504
-6.138065 -13.602110 -0.507487
-6.501009 -13.531270 -0.414790
-6.862943 -13.446230 -0.326947
-7.223699 -13.358200 -0.234032
-7.589438 -13.266200 -0.136347
-7.962284 -13.154380 -0.052941
-8.320948 -13.061460 0.050086
-8.689297 -12.951730 0.138601
-9.055531 -12.834478 0.227722
-9.416929 -12.729095 0.318633
-9.783766 -12.628393 0.426039
-10.142857 -12.529228 0.518569
-10.509609 -12.415468 0.596246
-10.871661 -12.255860 0.631510
-11.233707 -12.062616 0.623406
-11.592396 -11.868224 0.550531
-11.870251 -11.621630 0.334933
-12.127290 -11.378270 0.006474
-12.554969 -11.193283 -0.199955
-12.404859 -10.510994 0.086809
-12.729541 -10.312731 -0.152448
-12.432446 -9.708147 0.005466
-12.663319 -9.385276 -0.281561
-12.907272 -9.307849 -0.185629
-12.998062 -9.029044 -0.356030
-13.138363 -8.730331 -0.560979
-12.877784 -8.606937 -0.926953
-12.701058 -8.559917 -1.362054
-12.628197 -8.536276 -1.797568
-12.693954 -8.597433 -2.262172
-12.640754 -8.544481 -2.758491
-13.235928 -8.104364 -3.013445
-13.059060 -8.034840 -3.382549
-12.865152 -8.028588 -3.783562
-12.679183 -8.097455 -4.119679
9.061650 7.707514 -4.191624
9.046620 7.747189 -3.567539
9.080390 7.756303 -2.946359
9.165900 7.750852 -2.332641
9.314780 7.723786 -1.732769
9.531320 7.690977 -1.152341
9.817620 7.655017 -0.598714
10.173400 7.621770 -0.081668
10.593630 7.592999 0.389850
11.059210 7.565263 0.809814
11.591770 7.544899 1.188781
12.240250 7.551258 1.539011
-12.750015 -8.913266 -0.625184
-12.604134 -8.886161 -1.072016
-12.703519 -8.903613 -1.586887
-12.553667 -8.883042 -1.975170
-13.193669 -8.497782 -2.227728
-13.076478 -8.425143 -2.648011
-12.930101 -8.387897 -3.042533
-12.733710 -8.325080 -3.379792
-12.501696 -8.270373 -3.649569
-12.233650 -8.230993 -3.743387
-11.931830 -8.258150 -3.716944
-12.368930 -8.094630 -3.523355
-12.234082 -8.157130 -3.170802
-12.533364 -8.140260 -3.159703
-12.656644 -7.771180 -2.947358
-12.591815 -7.415650 -3.004371
-12.462591 -7.126920 -3.209886
-12.300703 -6.883260 -3.528418
-12.103495 -6.689050 -3.897682
-11.903804 -6.511620 -4.304052
-11.697882 -6.328770 -4.707757
-11.505744 -6.145850 -5.051378
-11.332676 -5.916730 -5.305252
-11.160456 -5.624670 -5.345352
-11.002196 -5.328930 -5.373351
-10.798204 -5.013370 -5.298252
-10.597294 -4.727350 -5.338820
-10.419245 -4.490840 -5.570030
-10.265552 -4.311300 -5.918500
-10.141965 -4.158270 -6.320310
-10.014102 -4.044340 -6.762440
-9.885981 -3.937330 -7.195980
-9.743930 -3.828480 -7.573140
-9.631139 -3.748380 -8.005340
-9.539243 -3.672620 -8.493110
-9.470666 -3.623850 -9.038530
-9.456087 -3.595620 -9.694200
-9.335762 -3.550100 -10.201400
-9.284024 -3.547950 -10.550530
-9.110619 -3.496430 -10.604990
-8.872586 -3.324010 -10.707520
-8.476971 -2.934890 -10.474830
-8.002786 -2.480800 -10.531960
-7.690728 -2.099370 -10.782880
-7.487414 -1.822940 -11.118780
-7.321871 -1.567390 -11.371430
-7.147806 -1.321410 -11.541430
-7.291630 -1.462550 -12.121670
-7.456749 -1.605480 -12.706500
-7.398228 -1.503790 -13.131810
-7.365366 -1.390120 -13.535020
-7.220623 -1.109120 -13.826530
-7.118710 -0.860210 -14.195700
-7.099158 -0.735890 -14.643600
-7.066378 -0.609770 -15.047310
-7.064496 -0.546760 -15.440260
-7.044569 -0.556910 -15.707210
-6.780945 -0.294450 -15.582620
-6.381578 -0.036640 -15.503940
-5.900059 0.118190 -15.487400
-5.396732 0.134250 -15.531080
-5.058109 0.470220 -15.409650
-4.694016 0.637240 -15.175690
-4.242907 0.810250 -15.071260
-3.723335 0.837790 -15.091780
-3.187440 0.859450 -15.290110
-2.698742 0.591320 -15.491530
-2.312639 0.227030 -15.813510
-1.919734 0.021870 -15.863120
-1.509655 0.002260 -16.197070
-1.093244 -0.139160 -16.080460
-0.891955 -0.397780 -16.034110
-0.727783 -0.673360 -15.934210
-0.561710 -0.956040 -15.841260
-0.395052 -1.261380 -15.736900
-0.201113 -1.583200 -15.647030
0.050247 -1.997160 -15.596830
0.184632 -2.267650 -15.349850
0.241411 -2.411890 -15.080190
0.234334 -2.436250 -14.727810
0.119434 -2.299370 -14.256810
-0.019511 -2.113670 -13.723850
0.163049 -2.439840 -13.755080
0.355273 -2.728200 -13.747360
0.523874 -2.968110 -13.628110
0.665052 -3.179400 -13.395650
0.850351 -3.431100 -13.190090
1.062403 -3.786470 -13.154430
1.244875 -4.190560 -13.230060
1.406298 -4.568180 -13.245690
1.344061 -4.854120 -13.014260
1.374786 -5.055830 -12.671120
1.444900 -5.163470 -12.219660
1.780534 -5.254100 -12.567260
2.045463 -5.122010 -12.749700
1.650447 -4.905800 -12.510610
1.370737 -4.489810 -12.295630
1.192283 -4.034330 -12.097010
0.939217 -3.584390 -11.909020
0.671796 -3.146420 -11.722430
0.413724 -2.743700 -11.580690
0.474969 -2.788800 -12.077420
0.524611 -2.834810 -12.557770
0.560299 -2.854790 -13.013540
0.591236 -2.852730 -13.395510
0.554156 -2.779600 -13.686450
0.476020 -2.654280 -13.937930
0.374423 -2.486030 -14.147650
0.571512 -2.797510 -14.571470
0.756431 -3.068210 -14.932990
0.882549 -3.248010 -15.200730
0.897477 -3.284580 -15.492950
0.852707 -3.158320 -15.702050
0.855362 -3.045010 -15.916110
0.869092 -2.935430 -16.160200
0.899765 -2.836190 -16.370870
0.831713 -2.721990 -16.568660
0.758571 -2.634480 -16.774800
0.406710 -2.275430 -16.176620
0.205890 -1.977270 -15.900250
-0.005720 -1.606610 -15.608130
-0.214770 -1.231850 -15.314610
-0.417570 -0.848910 -14.990580
-0.607140 -0.450020 -14.642280
-0.710490 -0.018170 -14.280810
-0.682530 0.439060 -13.925250
-0.511650 0.891210 -13.595090
-0.204570 1.314823 -13.319790
0.172490 1.732327 -13.116170
0.644930 2.079154 -13.007880
1.105820 2.419366 -12.988370
1.550260 2.705443 -13.068850
1.868860 2.930761 -13.223950
2.086280 3.025798 -13.100480
2.405010 3.192674 -13.031150
2.714580 3.334510 -12.963610
2.986530 3.456266 -12.891400
3.225560 3.587050 -12.797920
3.429120 3.698225 -12.659790
3.531910 3.823805 -12.467570
3.621360 3.895022 -12.233690
3.640830 3.897905 -11.886200
3.669380 3.865657 -11.452980
3.717910 3.837725 -10.983840
3.798130 3.820982 -10.506460
3.933740 3.869764 -10.045280
4.180260 3.929446 -9.668900
4.571680 3.999791 -9.391210
5.037150 4.081325 -9.365760
5.462450 4.153749 -9.391090
5.804310 4.211075 -9.361940
6.077430 4.258697 -9.217830
6.308410 4.302823 -8.987740
6.507970 4.318443 -8.668040
6.687370 4.343041 -8.270130
6.866550 4.396568 -7.841540
7.060340 4.483154 -7.438990
7.336830 4.609355 -7.169830
7.729980 4.594250 -7.121620
8.070750 4.550034 -7.052279
8.367180 4.427412 -7.020222
8.610900 4.311953 -7.001288
8.809930 4.235714 -7.025952
9.242700 3.842728 -6.276763
9.408650 3.643691 -5.964051
9.569690 3.440659 -5.585684
9.696310 3.197725 -5.086404
10.229920 2.499407 -4.775393
10.363340 2.184309 -4.771868
10.262250 1.873737 -4.799094
10.592900 1.865867 -4.700789
10.605150 2.023797 -5.191998
-12.634172 -9.236318 -1.376164
-13.161014 -9.037510 -1.582041
-13.068724 -8.903630 -1.982911
-12.956790 -8.842750 -2.385952
-12.773905 -8.717610 -2.704286
-12.595961 -8.605210 -3.001618
-12.407337 -8.432950 -3.199755
-12.213735 -8.300780 -3.223932
-12.003460 -8.196080 -3.172984
-11.937147 -8.019290 -3.067362
-12.303614 -8.208860 -2.787224
-12.596191 -8.149460 -2.561627
-12.694582 -7.620930 -2.178544
-12.607645 -7.208750 -2.393310
-12.413886 -6.942130 -2.673443
-12.206298 -6.741190 -3.010477
-11.977446 -6.574710 -3.393428
-11.761813 -6.404020 -3.789753
-11.550347 -6.234870 -4.159916
-11.351022 -6.044830 -4.473064
-11.185134 -5.799820 -4.676401
-11.011735 -5.517100 -4.737075
-10.852840 -5.214190 -4.761035
-10.657129 -4.916690 -4.730180
-10.441041 -4.604730 -4.805420
-10.236797 -4.335850 -5.065780
-10.073608 -4.131680 -5.438980
-9.919199 -3.975630 -5.863240
-9.781477 -3.840130 -6.308310
-9.638000 -3.719650 -6.750900
-9.484961 -3.608720 -7.189520
-9.362624 -3.537380 -7.682090
-9.268126 -3.474350 -8.230390
-9.180954 -3.435780 -8.825780
-9.126485 -3.414520 -9.465310
-9.094817 -3.429600 -10.073890
-8.832390 -3.254990 -10.002370
-8.132476 -2.557130 -9.845480
-7.834832 -2.221000 -9.988150
-7.575851 -1.878740 -10.241030
-7.370508 -1.603340 -10.541830
-7.176659 -1.373070 -10.790410
-6.981038 -1.156310 -10.966930
-6.757719 -0.914580 -11.031440
-6.918661 -1.055800 -11.568550
-7.070691 -1.184720 -12.073430
-7.149431 -1.252570 -12.474800
-7.107776 -1.164300 -12.831440
-7.033598 -1.044530 -13.169380
-6.900300 -0.819800 -13.494080
-6.806927 -0.602340 -13.887600
-6.740835 -0.449210 -14.291090
-6.735092 -0.309410 -15.271470
-6.347953 -0.017130 -15.174770
-5.897768 0.157520 -15.154280
-5.529566 0.352560 -15.180020
-5.193213 0.495270 -15.029850
-4.836070 0.725110 -14.840530
-4.327663 0.875710 -14.721140
-3.735333 0.971680 -14.734170
-3.144930 0.917690 -14.921160
-2.663748 0.729350 -15.180140
-2.242345 0.514360 -15.354090
-1.849329 0.387490 -15.483380
-1.476194 0.184890 -15.616610
-1.140780 0.008770 -15.644380
-0.951853 -0.256720 -15.725480
-0.847327 -0.379000 -15.540350
-0.706290 -0.620380 -15.389900
-0.553725 -0.916890 -15.257950
-0.380507 -1.251680 -15.157980
-0.207691 -1.584240 -15.050780
-0.059174 -1.864510 -14.904830
0.028617 -2.062290 -14.723520
0.073128 -2.177420 -14.567360
-0.346718 -1.592430 -13.187380
-0.167760 -1.934460 -13.153810
0.035654 -2.255880 -13.166120
0.228977 -2.542560 -13.181910
0.376023 -2.780920 -13.128800
0.493472 -2.978180 -12.927870
0.642216 -3.231600 -12.714540
0.848131 -3.574620 -12.662010
1.039811 -3.935030 -12.688590
1.181684 -4.275470 -12.681810
1.233069 -4.528990 -12.455440
1.203010 -4.757740 -12.181150
1.193253 -4.939350 -11.804470
1.263360 -5.056410 -11.376860
1.546538 -5.185510 -11.717570
1.855867 -5.115840 -11.995610
2.009487 -4.850670 -12.142940
1.585207 -4.752650 -11.987230
1.289688 -4.381320 -11.821560
1.101873 -3.960120 -11.638010
0.857094 -3.540290 -11.445200
0.602315 -3.118690 -11.238220
0.353995 -2.698220 -11.072680
0.119409 -2.287750 -10.981820
0.181085 -2.349280 -11.500630
0.247784 -2.430810 -11.997710
0.319933 -2.513200 -12.481130
0.389051 -2.603010 -12.905510
0.452252 -2.674010 -13.219130
0.389475 -2.562160 -13.361500
0.292353 -2.389400 -13.523790
0.175812 -2.173500 -13.666610
0.047640 -1.919570 -13.790060
0.261684 -2.262780 -14.315750
0.704813 -2.981250 -15.170820
0.635919 -2.838030 -15.359520
0.622214 -2.748600 -15.628230
0.646755 -2.720010 -15.939760
0.700420 -2.689690 -16.224890
0.643419 -2.573750 -16.285210
0.592520 -2.477410 -16.499590
-8.262128 -2.700920 -9.476220
-8.545995 -2.990270 -9.815210
0.411178 -2.459990 -15.000490
0.501371 -2.636230 -14.783410
0.400446 -2.385110 -15.353290
0.446100 -2.393760 -15.830980
10.782940 2.378662 -4.996930
10.417040 2.747820 -5.304094
10.149830 3.156377 -5.313705
9.744110 3.476111 -5.438733
9.353180 3.743159 -5.532800
9.365340 3.826363 -5.899227
9.347190 3.916124 -6.186437
9.290380 4.004855 -6.424075
9.095190 4.136882 -6.610615
8.851780 4.286376 -6.788235
8.676650 4.451163 -7.062398
8.721740 4.551016 -7.484669
8.410270 4.707266 -7.437340
8.209370 4.974342 -7.516980
8.263850 5.297213 -7.577616
8.268450 5.604835 -7.470388
8.179850 5.864988 -7.160481
8.099270 6.078260 -6.791567
8.027940 6.295165 -6.422090
7.960820 6.505396 -6.047225
7.932830 6.725832 -5.678935
7.999870 6.925011 -5.305497
8.161930 7.104732 -4.878466
8.240770 7.076079 -4.257179
8.339000 7.066435 -3.715567
8.586360 7.303251 -3.909594
8.828100 7.511684 -4.079657
12.220990 7.042253 1.547698
12.677770 6.661445 1.686517
13.012050 6.348573 1.727754
13.285030 6.055007 1.717167
13.513090 5.787587 1.683923
13.687930 5.523084 1.596089
13.803680 5.260892 1.480045
13.885190 4.994764 1.363102
13.995810 4.717290 1.307719
14.113210 4.433503 1.328433
14.312630 4.225920 1.391604
14.132650 4.045062 1.320408
14.036100 3.758789 1.292902
13.929990 3.456357 1.334654
13.863820 3.137234 1.452922
13.810460 2.807526 1.631661
13.762750 2.465886 1.807470
13.729710 2.094041 1.921964
13.700630 1.710895 2.026737
13.689600 1.319141 2.097450
13.720830 0.893674 2.157923
13.820610 0.362461 2.235472
13.665440 -0.065609 2.249046
13.597510 -0.469877 2.267892
13.550190 -0.878395 2.294319
13.515040 -1.289808 2.311121
13.487940 -1.703042 2.324551
13.451210 -2.124968 2.352062
13.357310 -2.537221 2.327312
13.202000 -2.900059 2.286172
13.007800 -3.217292 2.179490
12.822650 -3.529217 2.081206
12.637140 -3.823995 1.958178
12.449170 -4.121666 1.827921
12.265580 -4.413535 1.691341
12.080360 -4.704843 1.551490
11.893130 -4.999721 1.416646
11.708280 -5.298404 1.286822
11.519980 -5.599168 1.168121
11.323120 -5.898128 1.054186
11.125250 -6.195270 0.937291
10.923570 -6.491233 0.825960
10.719970 -6.778776 0.707362
10.511610 -7.071494 0.605089
10.300800 -7.355375 0.494326
10.086590 -7.648123 0.409184
9.867320 -7.928889 0.311030
9.645020 -8.208650 0.221674
9.418520 -8.490910 0.141559
9.186560 -8.767060 0.057229
8.953850 -9.045650 -0.012679
8.719460 -9.320180 -0.074500
8.476610 -9.587690 -0.136441
8.228460 -9.844760 -0.196954
7.973270 -10.104210 -0.238011
7.710850 -10.356110 -0.275015
7.446698 -10.602640 -0.306024
7.185575 -10.854420 -0.337675
6.930080 -11.119100 -0.368592
6.680757 -11.389640 -0.389835
6.431118 -11.664830 -0.402041
6.180199 -11.943590 -0.416348
5.920419 -12.222820 -0.420813
5.654916 -12.504680 -0.427885
5.367733 -12.777340 -0.454810
5.052202 -13.031660 -0.479339
4.700856 -13.258170 -0.505763
4.305515 -13.389880 -0.521186
3.907925 -13.465920 -0.543526
3.520095 -13.501180 -0.582608
3.143355 -13.515850 -0.637587
2.776260 -13.524430 -0.688255
2.410248 -13.529280 -0.738143
2.052270 -13.524320 -0.808966
1.692240 -13.512010 -0.858777
1.318808 -13.481130 -0.897398
0.937456 -13.459670 -0.922837
0.577542 -13.490930 -0.989669
0.221595 -13.520720 -1.037506
-0.130713 -13.535930 -1.067001
-0.482724 -13.539610 -1.077253
-0.834651 -13.530110 -1.075988
-1.183378 -13.515240 -1.063831
-1.537106 -13.500200 -1.037916
-1.889183 -13.487640 -1.000102
-2.240932 -13.471300 -0.970098
-2.597487 -13.455580 -0.936877
-2.946241 -13.448280 -0.872161
-3.294517 -13.431580 -0.810737
-3.651735 -13.404760 -0.757830
-4.008886 -13.372320 -0.693409
-4.363288 -13.332300 -0.625978
-4.718568 -13.288630 -0.551382
-5.074482 -13.242570 -0.464575
-5.431786 -13.193840 -0.371990
-5.786728 -13.143460 -0.273323
-6.148081 -13.081910 -0.185651
-6.508062 -13.007200 -0.095332
-6.869861 -12.932270 0.000266
-7.245032 -12.845380 0.088515
-7.603980 -12.759230 0.198305
-7.969780 -12.658880 0.281982
-8.338427 -12.558150 0.378929
-8.711343 -12.465630 0.480246
-9.085622 -12.357770 0.563425
-9.453876 -12.252230 0.643473
-9.816451 -12.152430 0.743332
-10.181666 -12.053610 0.829741
-10.550900 -11.939220 0.870167
-10.923051 -11.801717 0.885152
-11.291386 -11.640947 0.847311
-11.636589 -11.451338 0.713006
-11.929918 -11.233955 0.462558
-12.199029 -11.021963 0.133230
-12.476973 -10.848024 -0.276475
-12.938751 -10.575449 -0.478733
-12.542267 -9.930303 -0.460440
-12.723387 -9.729717 -0.671320
-12.542037 -9.260062 -0.797607
8.859140 7.515414 -3.491146
8.921900 7.509238 -2.895401
9.033650 7.483910 -2.301249
9.196350 7.439859 -1.714619
9.427170 7.392632 -1.143893
9.728080 7.344653 -0.601651
10.094200 7.301909 -0.098698
10.509160 7.258636 0.350865
10.969040 7.216549 0.762872
11.492780 7.145304 1.134734
0.208950 -1.986500 -15.472810
-0.012580 -1.618070 -15.209500
-0.216040 -1.257700 -14.950140
-0.418110 -0.898480 -14.637760
-0.608980 -0.522650 -14.290750
-0.726890 -0.106880 -13.927390
-0.724270 0.343410 -13.562830
-0.575400 0.793920 -13.221110
-0.282080 1.220899 -12.933110
0.097670 1.627239 -12.714210
0.549940 1.987190 -12.588360
1.046990 2.346715 -12.551730
1.635990 2.733692 -12.645680
2.064650 2.972036 -12.517750
2.397450 3.151966 -12.423870
2.693380 3.296511 -12.336520
2.952530 3.433429 -12.268000
3.179280 3.559715 -12.180350
3.473520 3.768869 -12.007890
3.433860 3.690244 -11.268030
3.434500 3.665174 -10.763380
3.461170 3.670899 -10.255350
3.554160 3.716183 -9.761110
3.753400 3.780867 -9.263170
4.117990 3.867167 -8.759540
4.738260 3.995390 -8.801890
5.180340 4.074174 -8.824860
5.531110 4.137083 -8.796270
5.804160 4.184731 -8.674940
6.030340 4.215877 -8.451040
6.223500 4.246476 -8.146060
6.403340 4.283791 -7.778870
6.581510 4.344989 -7.363180
6.772010 4.440804 -6.948630
7.072130 4.481523 -6.578030
7.479000 4.453998 -6.277326
7.942990 4.418141 -6.390141
8.281890 4.309969 -6.442671
8.588220 4.196722 -6.531608
10.847640 2.029097 -4.476213
10.375830 2.574562 -4.782976
10.224070 2.844736 -4.928167
9.671980 3.404949 -5.025988
9.349780 3.638341 -5.135902
9.015330 3.852395 -5.119412
8.964710 3.950958 -5.540540
8.978600 4.039500 -5.918602
8.995320 4.076214 -6.174785
9.028790 4.103144 -6.351026
8.813310 4.202682 -6.401160
8.518310 4.378173 -6.509001
8.219110 4.606788 -6.820602
7.990120 4.925685 -6.967851
8.007370 5.242291 -7.049536
8.048730 5.476131 -6.977977
7.982400 5.680139 -6.729757
7.925680 5.890885 -6.415564
7.852310 6.114539 -6.112728
7.811440 6.308223 -5.797783
7.788890 6.462873 -5.421191
7.815090 6.594823 -4.999835
7.889920 6.706538 -4.538066
8.006470 6.755305 -4.027922
8.155550 6.766064 -3.515525
8.310910 6.761541 -3.005916
8.465240 7.040224 -3.185291
8.651390 7.290045 -3.353626
9.956510 3.130029 -4.892214
10.167210 2.865166 -4.612631
10.031370 2.799504 -4.732772
9.777050 2.976364 -4.457819
10.461340 2.191664 -4.557827
10.453070 1.823389 -4.222215
0.173480 -1.983890 -15.023460
-0.050700 -1.602640 -14.794420
-0.235010 -1.275410 -14.602330
-0.415580 -0.962760 -14.306630
-0.606610 -0.619980 -13.952940
-0.738710 -0.220170 -13.573120
-0.774410 0.221120 -13.188220
-0.672480 0.683760 -12.828080
-0.406140 1.121270 -12.521390
-0.028310 1.518110 -12.281890
0.404310 1.896512 -12.126090
0.871300 2.232872 -12.045090
1.359890 2.546016 -12.023190
1.764720 2.798698 -11.940100
2.108800 2.996337 -11.841920
2.431910 3.171025 -11.764260
2.730250 3.298397 -11.701690
2.997150 3.441174 -11.661980
3.235910 3.593200 -11.653520
3.168600 3.542065 -11.152890
3.122000 3.512203 -10.636740
3.111210 3.532103 -10.092010
3.166550 3.582914 -9.536110
3.275160 3.644953 -8.999980
3.444430 3.709569 -8.472780
4.553200 3.931610 -8.214400
4.961240 4.002939 -8.260760
5.297200 4.071669 -8.248500
5.560930 4.112689 -8.173080
5.744650 4.138125 -7.951890
5.929670 4.158571 -7.647790
6.115210 4.196555 -7.297160
6.300590 4.241629 -6.902470
6.500740 4.311346 -6.478470
6.745490 4.320584 -6.068030
7.013910 4.291353 -5.660230
7.919800 4.264380 -5.738318
8.270240 4.156655 -5.847813
8.691750 4.019088 -5.983617
9.035290 3.991813 -6.528769
8.881340 4.132445 -6.793843
4.049510 3.840830 -8.094710
3.508310 3.740662 -7.951200
7.539480 4.242911 -5.521962
7.166220 4.153598 -5.155347
8.991680 3.831483 -5.793067
9.174410 3.667738 -5.499105
9.312060 3.480725 -5.129075
9.430050 3.296588 -4.664747
9.524910 3.094564 -4.130566
9.606100 2.888515 -3.565363
9.833360 2.736422 -3.845940
10.048320 2.550557 -4.055317
10.216280 2.297643 -4.168323
10.290470 2.021396 -4.239368
10.305400 1.741391 -4.329279
10.574230 1.712314 -4.293502
10.774510 1.803880 -4.068122
10.768230 1.842127 -3.782616
10.376360 1.553145 -3.566704
10.343790 1.883066 -3.900053
10.398040 2.219348 -4.171403
10.298870 2.535411 -4.359890
8.751990 7.264761 -2.793298
8.889910 7.222667 -2.231914
9.072400 7.149724 -1.676330
9.326620 7.083996 -1.127094
9.649930 7.025292 -0.605275
10.031030 6.976842 -0.127699
10.439220 6.937805 0.292603
10.849530 6.903267 0.647363
11.265450 6.785697 0.946927
11.748910 6.614246 1.212780
12.190590 6.376771 1.371239
12.548090 6.103858 1.421789
12.849600 5.859325 1.422553
13.097370 5.626274 1.368491
13.290890 5.417785 1.302385
13.389290 5.217856 1.123218
13.460420 4.980077 0.963985
13.542310 4.666735 0.916410
13.745630 4.295343 0.855068
13.541100 3.919136 0.899672
13.445720 3.579744 0.904854
13.352480 3.275698 1.093142
13.270830 2.972401 1.357131
13.219600 2.621313 1.552084
13.168640 2.258860 1.719172
13.134360 1.875585 1.837787
13.110200 1.484018 1.929497
13.108680 1.078457 2.011836
13.114720 0.644789 2.083789
13.080090 0.231097 2.120276
13.053430 -0.176998 2.156312
13.038030 -0.582700 2.196926
13.021110 -0.985140 2.234944
13.012180 -1.388789 2.296694
12.998180 -1.800286 2.371559
12.905360 -2.194659 2.414851
12.748570 -2.531325 2.339494
12.563990 -2.832619 2.298245
12.377750 -3.125432 2.202742
12.196780 -3.415463 2.092022
12.013250 -3.713912 1.981322
11.831990 -4.004659 1.856854
11.652980 -4.296311 1.729819
11.468870 -4.589409 1.595824
11.286920 -4.884804 1.472042
11.101240 -5.180623 1.355265
10.908230 -5.480357 1.252921
10.713930 -5.771063 1.133878
10.514210 -6.062498 1.023996
10.313180 -6.351539 0.917615
10.108230 -6.633900 0.803845
9.901570 -6.926751 0.718533
9.687990 -7.207807 0.617672
9.473900 -7.490836 0.533562
9.253640 -7.773748 0.458147
9.032340 -8.050550 0.374205
8.805150 -8.328740 0.302970
8.579860 -8.604580 0.241548
8.347700 -8.873050 0.175135
8.108250 -9.139800 0.123536
7.863170 -9.394410 0.070818
7.611090 -9.644270 0.033554
7.349944 -9.886990 0.005032
7.085737 -10.129630 -0.007328
6.826254 -10.381680 -0.026969
6.581178 -10.653070 -0.053940
6.343268 -10.933960 -0.072675
6.106818 -11.218600 -0.085236
5.871732 -11.506650 -0.090009
5.629841 -11.793410 -0.086275
5.373511 -12.076520 -0.100553
5.114840 -12.358060 -0.122558
4.826520 -12.619560 -0.150324
4.496311 -12.842990 -0.182117
4.111800 -12.946240 -0.202333
3.730459 -12.999920 -0.216013
3.352718 -13.019100 -0.241047
2.984839 -13.024260 -0.284965
2.628312 -13.017090 -0.345232
2.276322 -13.007720 -0.413322
1.927395 -12.999740 -0.483799
1.579975 -12.973870 -0.555230
1.224641 -12.921100 -0.598729
0.792623 -12.743150 -0.587614
0.424367 -12.908290 -0.721830
0.086208 -12.956140 -0.786440
-0.251111 -12.973080 -0.817072
-0.590868 -12.970860 -0.826695
-0.929824 -12.951350 -0.828349
-1.274322 -12.928060 -0.816840
-1.619207 -12.904520 -0.792056
-1.966990 -12.885930 -0.758936
-2.312477 -12.876090 -0.715684
-2.657650 -12.863620 -0.684378
-3.007599 -12.851920 -0.636193
-3.354608 -12.841860 -0.572345
-3.702017 -12.823380 -0.507520
-4.053694 -12.796550 -0.437920
-4.406208 -12.760420 -0.369106
-4.758248 -12.719640 -0.295804
-5.107929 -12.680370 -0.198981
-5.462534 -12.632350 -0.109580
-5.815470 -12.580160 -0.018797
-6.173414 -12.522620 0.077936
-6.533783 -12.458760 0.182234
-6.900077 -12.382540 0.269689
-7.260927 -12.303940 0.372581
-7.631433 -12.207180 0.445339
-7.996290 -12.117920 0.553772
-8.373024 -12.028260 0.652719
-8.746456 -11.931570 0.739566
-9.116824 -11.832100 0.831156
-9.493239 -11.732960 0.910195
-9.868863 -11.635760 0.985043
-10.242559 -11.536210 1.040546
-10.613714 -11.428250 1.071326
-10.987871 -11.304780 1.048016
-11.347622 -11.164700 0.970482
-11.672348 -11.004260 0.800806
-11.992626 -10.827120 0.572369
-12.192322 -10.651190 0.172105
-12.478676 -10.477253 -0.227366
-12.772513 -10.344686 -0.679308
-13.126606 -10.099361 -1.028235
-12.683442 -9.526083 -1.075475
-8.840413 -3.215310 -9.299610
-8.526789 -2.949090 -9.018170
-8.318643 -2.758820 -9.106170
-7.887729 -2.273950 -9.326030
-7.651886 -1.983160 -9.471810
-7.437683 -1.662720 -9.711830
-7.228551 -1.411620 -9.987040
-7.022748 -1.194000 -10.224540
-6.795274 -1.009830 -10.402420
-6.567464 -0.799910 -10.492660
-6.320622 -0.561910 -10.515590
-6.490984 -0.655260 -11.020880
-6.658865 -0.767410 -11.520180
-6.807632 -0.867660 -11.970120
-6.931912 -0.988330 -12.333420
-6.829581 -0.844670 -12.524860
-6.729261 -0.703900 -12.836620
-6.616544 -0.513050 -13.169980
-6.526145 -0.329560 -13.545440
-6.401945 -0.160830 -13.886900
-6.191987 0.037520 -14.151520
-5.877780 0.297930 -14.315010
-5.572117 0.467680 -14.502230
-5.826004 0.293340 -14.829610
-5.556055 0.385780 -14.913260
-5.332154 0.544070 -14.731680
-4.978832 0.749090 -14.503070
-4.461345 0.914960 -14.323080
-3.741400 1.019650 -14.229140
-3.079566 0.962380 -14.528480
-2.613212 0.831860 -14.762420
-2.205487 0.659100 -14.939750
-1.802929 0.490150 -15.066490
-1.452251 0.304320 -15.200760
-1.121462 0.012910 -15.176900
-0.900433 -0.260410 -14.955870
-0.727021 -0.574630 -14.792150
-0.558952 -0.918980 -14.682480
-0.399476 -1.245110 -14.600860
-0.286420 -1.495030 -14.439690
-0.156628 -1.770420 -14.309100
-4.686879 0.872190 -13.936980
-4.098834 0.972430 -13.753340
-2.897704 0.920440 -14.195740
-2.514196 0.821250 -14.393630
-2.131637 0.686670 -14.562930
-1.779384 0.517430 -14.728420
-1.522779 0.359040 -14.877270
-1.343273 0.238020 -14.740550
-1.147472 0.038930 -14.529340
-0.942594 -0.244260 -14.310380
-0.732485 -0.642040 -14.231510
-0.870653 -0.476390 -13.732860
-0.557520 -1.067830 -13.896120
-0.356143 -1.484900 -13.807340
-0.188678 -1.816120 -13.747830
-0.034078 -2.016330 -14.231320
-0.528267 -1.253320 -13.236110
-0.678930 -1.056920 -12.649780
-0.475189 -1.416070 -12.599670
-0.275800 -1.763510 -12.561390
-0.083909 -2.117730 -12.545150
0.124714 -2.434570 -12.652740
0.275252 -2.661150 -12.764420
0.325703 -2.778030 -12.508960
0.446981 -3.011620 -12.253960
0.638500 -3.339540 -12.149140
0.831989 -3.684980 -12.144590
0.987024 -3.994990 -12.102710
1.071592 -4.238890 -11.914070
1.142279 -4.440130 -11.633630
1.158274 -4.644870 -11.334350
1.071061 -4.847530 -10.985190
1.152066 -4.979910 -10.602880
1.350451 -5.164750 -10.926840
1.648768 -5.158860 -11.213170
1.881190 -4.949190 -11.432280
1.902124 -4.637150 -11.580220
1.473067 -4.601380 -11.467210
1.202999 -4.261700 -11.337150
1.014242 -3.872270 -11.180930
0.792739 -3.496590 -11.005760
0.551383 -3.115640 -10.762220
0.307987 -2.687960 -10.574440
0.058293 -2.266710 -10.464880
-0.178369 -1.870290 -10.417740
-0.118868 -1.907460 -10.946740
-0.036399 -1.976410 -11.478190
0.051800 -2.084530 -12.005900
0.149948 -2.227090 -12.511100
0.259251 -2.385070 -12.968890
0.136199 -2.159490 -13.074230
-0.002980 -1.893940 -13.165680
-0.158120 -1.599980 -13.241870
-0.310090 -1.287260 -13.326570
-0.114340 -1.618020 -13.866110
0.127850 -1.966530 -14.504170
8.647820 4.207113 -6.079320
8.261120 4.380959 -6.093959
7.941950 4.603819 -6.236588
7.839030 4.914341 -6.409743
7.830200 5.197645 -6.559706
7.891630 5.394197 -6.627711
7.816070 5.526875 -6.356677
7.753410 5.721185 -6.027980
7.731730 5.965603 -5.780234
2.877200 3.377631 -11.112920
2.788950 3.379036 -10.557600
2.764310 3.398615 -9.988470
2.785910 3.455259 -9.423170
2.834770 3.521712 -8.860430
2.934030 3.598364 -8.321590
3.012790 3.661066 -7.827480
3.086920 3.652292 -7.395630
3.490780 3.754270 -7.465240
3.953760 3.819505 -7.565370
4.393590 3.886811 -7.665540
4.776780 3.956567 -7.714820
5.109170 4.011590 -7.729590
5.373740 4.065829 -7.801330
5.453900 4.059838 -7.505140
5.621440 4.074098 -7.182620
5.815230 4.087213 -6.833990
6.008510 4.122013 -6.458140
6.206710 4.153875 -6.056570
6.416750 4.158718 -5.635230
6.647890 4.105734 -5.222855
6.816070 4.002591 -4.766330
6.965690 3.843356 -4.304144
7.283270 3.979311 -4.623815
7.606300 4.068981 -4.933002
7.931870 4.088647 -5.150932
8.248880 4.045459 -5.285995
8.553640 3.925285 -5.363909
8.807430 3.820639 -5.333738
8.958660 3.695094 -5.083852
9.082100 3.543779 -4.723456
9.188510 3.379194 -4.287174
9.272780 3.195020 -3.796123
9.349530 2.976653 -3.273619
9.429320 2.739468 -2.735610
9.688360 2.646656 -3.001768
9.913320 2.494201 -3.241902
10.114850 2.303431 -3.431632
10.272320 2.079034 -3.573906
10.168420 1.748422 -3.772234
10.279430 1.581287 -3.961627
10.492840 1.606587 -4.025733
10.681440 1.476237 -3.537026
10.747930 1.367644 -3.224883
10.639930 1.417250 -2.867217
10.427350 1.663211 -3.234465
10.442540 1.994320 -3.582508
10.384560 2.216820 -3.850674
9.874250 3.098201 -4.383217
9.601280 3.329132 -4.522032
9.328690 3.552499 -4.619830
8.974130 3.718985 -4.531607
8.646510 3.915283 -4.357579
8.568710 3.959937 -4.855347
8.522590 4.066983 -5.302510
8.551800 4.158235 -5.720160
-13.148735 -9.571787 -1.612085
-12.930997 -9.339250 -1.807090
-12.730411 -9.137010 -2.072756
-12.546973 -8.925360 -2.349075
-12.411670 -8.725570 -2.623715
-12.329488 -8.549220 -2.874208
-12.267625 -8.370290 -2.779049
-12.130656 -8.211960 -2.739529
-12.053381 -8.065770 -2.740654
-12.175282 -7.972110 -2.460370
-12.660940 -8.217680 -2.117865
-12.707348 -7.895290 -1.658129
-12.446666 -7.091770 -1.814936
-12.278392 -6.845560 -2.155493
-12.057451 -6.650870 -2.496793
-11.826478 -6.491950 -2.880676
-11.600117 -6.330950 -3.261600
-11.377911 -6.177150 -3.605685
-11.180687 -5.969720 -3.881291
-11.017428 -5.715300 -4.056131
-10.873774 -5.417410 -4.116072
-10.704855 -5.106230 -4.145203
-10.499810 -4.757860 -4.157772
-10.269663 -4.427130 -4.264763
-10.059723 -4.145450 -4.547850
-9.877527 -3.932040 -4.956160
-9.714728 -3.765810 -5.406380
-9.559208 -3.623800 -5.865110
-9.408420 -3.498380 -6.332140
-9.253153 -3.390800 -6.827340
-9.117860 -3.312240 -7.375530
-9.001972 -3.260450 -7.973290
-8.919281 -3.223650 -8.606780
7.695400 6.191557 -5.274675
7.693360 6.246448 -4.824410
7.752150 6.314206 -4.328178
7.874780 6.387593 -3.833543
8.036820 6.434974 -3.328546
8.232490 6.451315 -2.824427
8.464540 6.462436 -2.316236
8.494820 6.743994 -2.520990
8.602360 7.011756 -2.657972
8.765060 6.961030 -2.154426
8.947490 6.851950 -1.663890
9.233820 6.761984 -1.121816
9.592780 6.692021 -0.612684
10.004630 6.648072 -0.146326
10.430980 6.628843 0.259323
10.764900 6.676379 0.546254
11.025150 6.498696 0.708227
11.418120 6.305468 0.906507
11.823900 6.090424 1.033480
12.193710 5.867907 1.086273
12.509160 5.658882 1.078646
12.770000 5.461200 1.036980
13.018660 5.355961 1.044799
13.002150 5.199257 0.805724
13.077130 5.033610 0.491325
13.065900 4.702786 0.453332
13.066070 4.355427 0.430563
13.051390 4.005751 0.392238
13.002090 3.662098 0.376841
12.861810 3.428568 0.728980
12.768550 3.111294 1.014271
12.692820 2.770205 1.264223
12.639180 2.400526 1.435551
12.593590 2.022221 1.561626
12.551960 1.641035 1.658732
12.525990 1.251909 1.746872
12.516040 0.855247 1.808773
12.512730 0.457659 1.860310
12.526660 0.063496 1.909566
12.537740 -0.326448 1.973225
12.531890 -0.719998 2.045618
12.540430 -1.103562 2.150387
12.546690 -1.485847 2.261795
12.480280 -1.852269 2.202618
12.313710 -2.123695 2.303724
12.128480 -2.406762 2.289888
11.947680 -2.684597 2.237433
11.768140 -2.974932 2.157161
11.589870 -3.267943 2.057487
11.409990 -3.563477 1.952679
11.233310 -3.855604 1.836928
11.052800 -4.147553 1.714342
10.871830 -4.442226 1.596571
10.685350 -4.738333 1.490956
10.496690 -5.029106 1.380063
10.302880 -5.322643 1.278394
10.106190 -5.611690 1.176047
9.906110 -5.898022 1.071128
9.703200 -6.187245 0.981301
9.498990 -6.473546 0.889594
9.290960 -6.758173 0.810453
9.075880 -7.036831 0.719546
8.857210 -7.318648 0.645031
8.639930 -7.595410 0.571524
8.421770 -7.873850 0.515147
8.197200 -8.145960 0.451128
7.969560 -8.415990 0.402290
7.734890 -8.674100 0.342772
7.490650 -8.925920 0.302883
7.237590 -9.170870 0.271933
6.973110 -9.406750 0.259127
6.698508 -9.638310 0.252876
6.436787 -9.891370 0.234790
6.198170 -10.169430 0.213117
5.973633 -10.463490 0.189583
5.753386 -10.757420 0.177812
5.527917 -11.047920 0.169631
5.296445 -11.333000 0.151662
5.056793 -11.615560 0.129410
4.814507 -11.891930 0.101386
4.564200 -12.145740 0.071726
4.265656 -12.364350 0.031304
3.909432 -12.447410 0.030243
3.552598 -12.478860 0.024812
3.188860 -12.479780 0.012428
2.832574 -12.468750 -0.022939
2.483723 -12.455790 -0.080526
2.143113 -12.443770 -0.153828
1.813361 -12.437890 -0.229549
1.496922 -12.426060 -0.299633
1.190702 -12.357450 -0.345297
0.908915 -12.199640 -0.361809
0.245511 -12.324520 -0.523403
-0.051609 -12.394460 -0.585086
-0.364352 -12.403050 -0.611723
-0.686862 -12.386730 -0.621382
-1.020289 -12.361930 -0.611394
-1.357772 -12.326170 -0.600810
-1.699377 -12.288060 -0.588415
-2.040900 -12.262840 -0.556474
-2.380629 -12.254190 -0.511156
-2.725926 -12.250170 -0.474306
-3.071753 -12.243700 -0.431108
-3.417691 -12.236740 -0.366479
-3.760794 -12.222810 -0.302198
-4.106872 -12.198890 -0.234584
-4.454881 -12.168900 -0.158810
-4.805406 -12.133070 -0.079845
-5.151624 -12.095110 0.015654
-5.498618 -12.054220 0.116641
-5.854116 -12.001320 0.202977
-6.212168 -11.947110 0.303437
-6.571996 -11.880740 0.391866
-6.934856 -11.808560 0.493456
-7.299045 -11.727280 0.579908
-7.666777 -11.638410 0.669882
-8.039919 -11.549340 0.758279
-8.415685 -11.460500 0.852828
-8.792837 -11.365630 0.930770
-9.172506 -11.271190 1.002591
-9.550918 -11.175430 1.073656
-9.931913 -11.082220 1.128699
-10.313636 -10.987010 1.170324
-10.687184 -10.891650 1.170172
-11.053699 -10.779880 1.124655
-11.413620 -10.652380 1.022701
-11.744536 -10.515860 0.853814
-12.007800 -10.368340 0.558638
-12.286957 -10.227010 0.199358
-12.352619 -10.119110 -0.323810
-12.611164 -9.977620 -0.782830
-12.872882 -9.850588 -1.251028
0.507814 -12.163180 -0.421251
0.675853 -11.837190 -0.299312
-12.683985 -9.549150 -1.417577
-12.509233 -9.250510 -1.639699
-12.365943 -8.927920 -1.886786
-12.268125 -8.574100 -2.236955
-6.515441 -0.513620 -12.052370
-6.428299 -0.348620 -12.490200
-6.333839 -0.193520 -12.875960
-6.251062 -0.075440 -13.226800
-6.092782 0.076840 -13.480570
-5.859617 0.273770 -13.695560
-5.479466 0.545430 -13.842120
-5.197891 0.679070 -14.180950
-3.264817 0.966390 -13.900880
-3.567289 0.937290 -13.531710
2.549070 3.235967 -11.109580
2.428210 3.214432 -10.477500
2.411310 3.261007 -9.871520
2.430760 3.325990 -9.309790
2.459330 3.400873 -8.745400
2.506100 3.483676 -8.198800
2.597840 3.510213 -7.692320
2.705020 3.529065 -7.234210
2.858720 3.512592 -6.829360
3.122580 3.633430 -7.073100
3.423680 3.693539 -7.019710
3.838400 3.775480 -7.071490
4.240350 3.844268 -7.151100
4.617500 3.900798 -7.167890
5.033590 3.976932 -7.121470
5.287700 3.962268 -6.718320
5.506850 3.963749 -6.366470
5.719070 3.967352 -6.011250
5.920160 3.991153 -5.638840
6.127540 3.964812 -5.246869
6.321980 3.933823 -4.851621
6.491750 3.816741 -4.428756
6.648090 3.657027 -3.991258
6.791790 3.467229 -3.526758
7.101600 3.635197 -3.822590
7.406720 3.785768 -4.121517
7.707600 3.888373 -4.405335
7.972300 3.945394 -4.675124
8.244080 3.920211 -4.812859
8.687410 3.800599 -5.006053
8.834630 3.588100 -4.399094
8.912970 3.422777 -3.968124
8.985260 3.225894 -3.505506
9.055040 3.002620 -3.009267
9.131560 2.746179 -2.497845
9.222020 2.465711 -1.978970
9.522180 2.471373 -2.199730
9.790970 2.402850 -2.435791
10.013580 2.254746 -2.658833
10.220280 2.040229 -2.846095
10.416880 1.851792 -3.019957
10.164820 1.550989 -3.304563
-12.254110 -8.209930 -2.297436
-12.638375 -8.195510 -1.271519
-12.574311 -7.392600 -1.458941
-12.056864 -6.851230 -1.716855
-11.838190 -6.673770 -1.995573
-11.625058 -6.490900 -2.365860
-11.400465 -6.329100 -2.733595
-11.184583 -6.156400 -3.049510
-10.992817 -5.929600 -3.292623
-10.838216 -5.652810 -3.440579
-10.707137 -5.337040 -3.499566
-10.542955 -5.003090 -3.535388
-10.333902 -4.637620 -3.581372
-10.116367 -4.273430 -3.707753
-9.882065 -3.956910 -4.018214
-9.689811 -3.726080 -4.493990
-9.522641 -3.556310 -4.970040
-9.355882 -3.400100 -5.449770
-9.193821 -3.271300 -5.945300
-9.038156 -3.170490 -6.478410
-8.891181 -3.089950 -7.059050
-8.762851 -3.039330 -7.661860
-8.649774 -2.998250 -8.301320
8.110360 4.332456 -5.649814
7.829880 4.625559 -5.699271
7.706060 4.958411 -5.869701
7.716340 5.291926 -6.071524
7.613440 5.477428 -5.478207
7.639690 5.888593 -5.312235
7.738600 6.151117 -5.614961
7.620560 5.873700 -4.753923
7.681440 5.933857 -4.201705
7.810220 6.014710 -3.687758
7.984420 6.089523 -3.188366
8.192590 6.125626 -2.687368
8.447030 6.137594 -2.191347
8.752870 6.121669 -1.677721
8.662590 6.746186 -2.138116
0.125765 -2.489490 -12.164080
0.230339 -2.733780 -11.761560
0.442947 -3.106260 -11.627180
0.650557 -3.454030 -11.597020
0.801138 -3.749260 -11.539860
0.921466 -3.984440 -11.359600
0.995575 -4.196150 -11.102660
1.091772 -4.377470 -10.808750
1.155082 -4.584670 -10.528700
1.036879 -4.794140 -10.241080
1.063596 -4.964190 -9.931590
1.198267 -5.136220 -10.199870
1.457627 -5.203740 -10.461680
1.734373 -5.087810 -10.696170
1.849546 -4.794860 -10.899380
1.755441 -4.494570 -11.046330
1.348650 -4.440790 -10.950530
1.116860 -4.108290 -10.846710
0.917451 -3.760490 -10.734500
0.753404 -3.476200 -10.663000
0.569827 -3.179880 -10.262160
0.273777 -2.687040 -10.066770
0.015933 -2.250340 -9.951340
-0.223203 -1.848970 -9.895680
-0.440313 -1.478620 -9.877010
-0.394790 -1.498310 -10.404070
-0.328090 -1.541690 -10.946980
-0.240571 -1.625690 -11.495940
-0.120612 -1.766270 -12.045150
0.004345 -1.935960 -12.577980
8.776550 6.517418 -1.764625
9.150980 6.419912 -1.148875
9.563200 6.341559 -0.637821
10.026290 6.286397 -0.175983
10.603930 6.254498 0.311412
11.114120 6.033643 0.570116
11.539480 5.841947 0.702680
11.922470 5.653963 0.732373
12.246500 5.477425 0.735455
12.543370 5.273772 0.568653
12.598800 5.090970 0.123786
12.554220 4.763930 0.009826
12.545070 4.427429 -0.053630
12.505630 4.081177 -0.041422
12.481790 3.752567 -0.031692
12.382110 3.503336 0.309784
12.264070 3.228809 0.682854
12.193590 2.871822 0.921745
12.132130 2.506928 1.105827
12.076210 2.137279 1.229752
12.023180 1.763797 1.310301
11.994710 1.383288 1.363423
11.987710 1.002223 1.406412
12.003410 0.617745 1.468088
12.032620 0.235930 1.551171
12.056060 -0.152426 1.634006
12.016690 -0.519259 1.792901
12.039220 -0.873783 1.953694
12.283670 -1.242164 1.780670
12.121210 -1.455570 1.977393
11.939340 -1.680238 2.151051
11.740130 -1.941378 2.197192
11.546070 -2.215095 2.171678
11.366150 -2.505534 2.122567
11.188220 -2.799622 2.055844
11.009870 -3.095888 1.962249
10.832970 -3.388375 1.857403
10.651840 -3.680348 1.759482
10.469680 -3.976642 1.662175
10.281450 -4.269760 1.558965
10.091680 -4.560941 1.457886
9.900430 -4.850838 1.376542
9.704880 -5.139944 1.282998
9.502310 -5.430375 1.193736
9.300900 -5.719639 1.108711
9.097160 -6.007212 1.030984
8.888510 -6.290639 0.947695
8.676090 -6.570055 0.869835
8.462000 -6.851395 0.804958
8.245220 -7.131190 0.744026
8.028610 -7.401410 0.670034
7.810400 -7.677030 0.635200
7.584920 -7.942230 0.579678
7.354140 -8.197690 0.530321
7.115420 -8.446130 0.497292
6.856630 -8.685090 0.467780
6.584670 -8.908730 0.459127
6.298601 -9.124280 0.448878
5.997391 -9.358680 0.445779
5.777606 -9.682860 0.429072
5.573112 -9.991350 0.394274
5.365170 -10.289640 0.366629
5.153752 -10.577220 0.340483
4.938568 -10.860950 0.323824
4.723225 -11.141170 0.292331
4.498117 -11.403220 0.228049
4.276369 -11.640800 0.153996
4.025973 -11.849650 0.156963
3.707787 -11.899380 0.126980
3.381454 -11.916130 0.174119
3.036356 -11.900130 0.192109
2.692011 -11.870820 0.157227
2.350104 -11.847380 0.105784
2.019064 -11.839790 0.038681
1.703453 -11.842640 -0.046068
1.407954 -11.852700 -0.134790
1.145625 -11.866320 -0.202794
0.957893 -11.868970 -0.252961
0.479000 -11.432850 -0.239640
0.327657 -11.704210 -0.321923
0.105227 -11.803640 -0.384806
-0.165071 -11.839240 -0.427318
-0.461243 -11.827940 -0.449765
-0.771601 -11.796720 -0.456177
-1.096051 -11.758390 -0.444713
-1.429310 -11.709000 -0.430857
-1.767580 -11.654830 -0.421830
-2.113296 -11.615640 -0.393516
-2.454565 -11.613180 -0.351215
-2.797854 -11.618520 -0.311881
-3.144535 -11.618970 -0.273358
-3.484734 -11.614930 -0.211847
-3.825083 -11.606640 -0.142437
-4.169082 -11.587660 -0.074975
-4.512003 -11.561380 0.001013
-4.856283 -11.530160 0.086825
-5.202863 -11.493440 0.175905
-5.549706 -11.453380 0.274268
-5.901698 -11.406560 0.372239
-6.260399 -11.351440 0.465125
-6.618907 -11.288610 0.567859
-6.981238 -11.212300 0.654813
-7.349561 -11.131450 0.737021
-7.721846 -11.042080 0.812253
-8.093872 -10.954560 0.900480
-8.475027 -10.866650 0.965554
-8.858934 -10.779900 1.039660
-9.242188 -10.691180 1.105475
-9.626606 -10.601700 1.154592
-10.008089 -10.513000 1.190181
-10.387101 -10.427380 1.202729
-10.758138 -10.346520 1.190268
-11.122110 -10.246950 1.129712
-11.480389 -10.131420 1.011966
-11.811134 -10.011420 0.811643
-12.112720 -9.889850 0.532917
-12.220995 -9.784590 0.078381
-12.400034 -9.710660 -0.412131
-12.469593 -9.660110 -0.948045
2.197260 3.059225 -11.127470
1.950270 2.998431 -10.350630
2.026030 3.111313 -9.683510
2.069410 3.192082 -9.142100
2.096240 3.266292 -8.614700
2.130750 3.328383 -8.075450
2.208540 3.354375 -7.551130
2.327470 3.353557 -7.053750
2.482300 3.339896 -6.598850
2.690420 3.313954 -6.160840
3.194110 3.551705 -6.480480
3.719010 3.686551 -6.587170
4.095430 3.765500 -6.681020
4.398850 3.804956 -6.622950
4.705020 3.823491 -6.465890
4.964780 3.817952 -6.186180
5.203710 3.806929 -5.875040
5.432060 3.805209 -5.547190
5.656310 3.797084 -5.208370
5.867200 3.780881 -4.870953
6.054980 3.744428 -4.545601
6.187420 3.629790 -4.149463
6.324290 3.469847 -3.718483
6.473290 3.280500 -3.270759
6.632440 3.041810 -2.827386
6.942740 3.239669 -3.062144
7.246480 3.410964 -3.340003
7.549670 3.579368 -3.626574
7.899280 3.686436 -3.918652
8.040720 3.811234 -4.333083
8.265270 3.784903 -4.415561
8.524600 3.757710 -4.557582
8.566270 3.622178 -4.154231
8.620140 3.442603 -3.719154
8.684400 3.245074 -3.257951
8.745570 3.001191 -2.773653
8.821300 2.731534 -2.276886
8.910610 2.424591 -1.778510
9.020270 2.090143 -1.281708
9.331230 2.155623 -1.465980
9.631300 2.182556 -1.668745
9.912100 2.140636 -1.887697
10.159020 1.998756 -2.112978
10.319900 1.830513 -2.261921
10.472890 1.339458 -2.478208
10.349540 1.369673 -2.817312
10.416590 1.202029 -3.288531
10.321280 1.417351 -3.619713
10.580340 1.569338 -3.805913
10.505690 1.062203 -2.951526
10.616440 1.003403 -2.614542
10.674840 1.011192 -2.262264
10.628860 1.453122 -2.513351
10.596720 1.847887 -2.870884
10.411720 2.105977 -3.265375
10.274850 2.452116 -3.774624
10.311900 0.780275 -2.653062
10.493300 0.631395 -2.337469
10.697380 0.573176 -2.009544
10.836250 0.618071 -1.643773
10.666920 1.040999 -1.893808
10.596190 1.471461 -2.141624
10.506990 1.863658 -2.446424
10.336910 2.166854 -2.819566
10.151290 2.472996 -3.197683
9.955720 2.769976 -3.520453
10.060670 2.800429 -4.080072
-8.032501 -2.454260 -9.031270
-8.136254 -2.587090 -8.713550
-0.121890 -1.532710 -14.378890
-0.245410 -1.290710 -14.344220
-0.375050 -1.083380 -14.047570
-0.553890 -0.765660 -13.661820
-0.761660 0.536850 -12.421840
-0.557000 1.011190 -12.097890
-0.210790 1.424296 -11.837020
0.207710 1.788347 -11.649970
0.648110 2.122246 -11.531940
1.087660 2.416641 -11.455500
1.477660 2.667769 -11.357840
1.839240 2.875061 -11.245790
9.750490 3.031055 -3.782717
9.497850 3.257390 -3.938084
9.251690 3.452055 -4.036563
8.991880 3.643299 -3.931160
8.691070 3.853787 -3.799897
8.424270 4.124665 -3.656298
8.281550 4.158245 -4.156924
8.177490 4.226952 -4.672965
8.094960 4.287517 -5.171036
-0.745911 -0.830790 -13.240480
-0.899028 -0.660510 -12.649130
-1.035740 -0.526890 -12.063260
-0.802526 -0.893180 -12.047480
-0.612930 -1.251500 -11.995540
-0.404639 -1.610430 -11.919620
-0.166542 -2.046340 -11.779390
-8.276573 -2.708230 -8.400470
-8.021120 -2.511910 -7.892020
-7.925542 -2.379370 -8.265040
-7.825192 -2.226660 -8.575080
-7.676272 -2.040090 -8.804880
-7.488854 -1.753000 -8.964370
-7.268648 -1.482770 -9.193320
-7.041425 -1.266320 -9.449810
-6.826584 -1.065330 -9.676400
-6.601462 -0.878250 -9.846630
-6.375292 -0.684470 -9.962490
-6.144867 -0.504460 -10.029540
-5.859978 -0.312790 -9.953830
-6.005273 -0.328360 -10.448960
-6.168829 -0.377280 -10.953620
-6.347345 -0.429420 -11.460590
-0.154960 -1.644340 -12.636340
-0.334500 -1.305520 -12.682620
-0.531640 -0.932180 -12.747550
-0.672620 -0.627050 -12.970090
-0.461360 -0.991270 -13.453580
-0.276520 -1.314920 -13.926170
-12.404039 -9.283080 -1.130649
-12.348016 -8.907990 -1.354194
-12.483541 -8.534790 -1.611899
-12.260288 -8.157740 -1.778328
-12.185384 -7.080020 -1.362601
-12.280325 -7.362380 -0.990637
7.592790 5.464358 -4.717304
7.680930 5.518212 -4.079439
7.822520 5.650984 -3.527469
7.989260 5.756683 -3.061061
8.193100 5.803263 -2.603746
8.447650 5.812904 -2.132709
8.761590 5.778445 -1.668225
9.128910 5.710057 -1.222044
9.127750 6.055393 -1.168924
-0.016225 -2.393100 -11.096820
0.273729 -2.903880 -11.039140
0.491079 -3.258000 -11.045270
0.655121 -3.547000 -10.984490
0.770152 -3.771090 -10.807670
0.858329 -3.982150 -10.549060
0.974434 -4.180660 -10.271260
1.077909 -4.398320 -10.031430
1.129208 -4.625150 -9.849160
1.133524 -4.792050 -9.720690
1.146444 -4.813890 -9.385020
1.078347 -5.063750 -9.538780
1.271441 -5.240330 -9.755720
1.556478 -5.216300 -9.973180
1.775071 -5.000720 -10.182120
1.779745 -4.682490 -10.377940
1.585334 -4.422900 -10.523220
1.237547 -4.279440 -10.431730
1.008872 -3.947310 -10.340780
0.787408 -3.594040 -10.260060
-4.889498 0.790090 -13.573140
-4.341678 0.894120 -13.350750
-3.807115 0.872950 -13.132300
-3.273120 0.831370 -12.948950
-3.071264 0.840220 -13.362260
-2.878289 0.878750 -13.715030
-2.729887 0.873130 -13.981220
-2.425633 0.791560 -14.071070
-2.042127 0.652910 -14.225700
-1.655487 0.451990 -14.444700
-1.296345 0.091250 -13.699860
-1.488075 0.328770 -14.126980
9.548380 5.981425 -0.713401
10.010750 5.921368 -0.304637
10.496980 5.854634 0.028862
10.943620 5.755857 0.261090
11.353560 5.613437 0.362806
12.024880 5.381246 0.439112
12.139900 5.140254 -0.301610
12.081450 4.837626 -0.461321
12.022930 4.513155 -0.530878
12.005040 4.159070 -0.512882
11.998230 3.806623 -0.500166
11.872050 3.616108 -0.011788
11.781610 3.289902 0.308900
11.711880 2.941520 0.560705
11.663630 2.578888 0.730792
11.611440 2.211360 0.833534
11.555850 1.843978 0.869956
11.520030 1.472900 0.884055
11.525000 1.093732 0.906767
11.563580 0.721490 0.973701
11.609900 0.335796 1.082152
11.610660 -0.034979 1.235061
11.562020 -0.366643 1.437357
12.110540 -0.619632 1.311508
11.983070 -0.893321 1.438659
11.799840 -1.049723 1.706129
11.614490 -1.230115 1.936001
11.389130 -1.452416 2.031318
11.185070 -1.733681 2.046024
10.999100 -2.023583 2.015112
10.816620 -2.319919 1.973302
10.633670 -2.615687 1.915640
10.451330 -2.909070 1.839234
10.267490 -3.202265 1.750266
10.084090 -3.492962 1.659289
9.890940 -3.787540 1.579515
9.695430 -4.077671 1.508441
9.502520 -4.366341 1.431979
9.305650 -4.656432 1.350251
9.103670 -4.947201 1.272606
8.901810 -5.237400 1.196023
8.698410 -5.526952 1.127836
8.488940 -5.808544 1.042603
8.275440 -6.091855 0.976052
8.064750 -6.374603 0.930052
7.850760 -6.650120 0.865932
7.636560 -6.922870 0.814905
7.419330 -7.193480 0.762832
7.197180 -7.458220 0.722465
6.970440 -7.713260 0.682581
6.734280 -7.958470 0.644307
6.481240 -8.188210 0.619698
6.208170 -8.395050 0.611347
5.890483 -8.577100 0.609305
5.436868 -8.703420 0.629503
5.303602 -9.188960 0.554410
5.133826 -9.531200 0.513550
4.948714 -9.831660 0.475984
4.750985 -10.114650 0.444806
4.553209 -10.390400 0.410453
4.357586 -10.661350 0.361544
4.169192 -10.913350 0.257856
3.995481 -11.130580 0.111671
3.801082 -11.322530 0.016954
3.528018 -11.331540 0.136357
3.236278 -11.328920 0.260392
2.906896 -11.287020 0.263457
2.567680 -11.240760 0.256052
2.228682 -11.199040 0.208317
1.898384 -11.199210 0.141487
1.577766 -11.221650 0.064488
1.278268 -11.275670 -0.023350
1.020897 -11.371000 -0.109139
9.565870 5.630522 -0.824055
10.042600 5.582397 -0.463277
10.523970 5.538239 -0.161676
10.892320 5.562422 0.052991
11.200840 5.388763 0.075392
11.659400 5.278683 0.041365
11.535550 5.025840 -0.333271
11.574680 4.922990 -0.933517
11.512560 4.573596 -1.039274
11.352350 4.269901 -0.719068
11.314900 3.916524 -0.552779
11.302670 3.587025 -0.299495
11.262150 3.268240 -0.021881
11.246140 2.929485 0.184110
11.232720 2.586574 0.332093
11.205840 2.246439 0.399827
11.147870 1.913210 0.381439
11.103740 1.536690 0.325445
11.152860 1.140762 0.313191
11.227040 0.757791 0.377387
11.281790 0.377454 0.553973
11.306310 0.011980 0.763646
11.807160 -0.123959 0.719871
11.730720 -0.397213 0.900989
11.599200 -0.596056 1.118795
11.484120 -0.645640 1.442276
11.289340 -0.749977 1.707999
11.060560 -0.986188 1.807133
10.854750 -1.254944 1.845574
10.658850 -1.542860 1.849765
10.473130 -1.839612 1.834416
10.287040 -2.133822 1.799532
10.095800 -2.424695 1.750152
9.907960 -2.713392 1.684609
9.716160 -3.005468 1.615222
9.515800 -3.293336 1.552813
9.315140 -3.578975 1.497216
9.116360 -3.868856 1.430763
8.915360 -4.161180 1.364954
8.713140 -4.453123 1.303602
8.508510 -4.746063 1.240093
8.303010 -5.035600 1.174193
8.093120 -5.321384 1.107530
7.879540 -5.605922 1.058762
7.669410 -5.886538 1.002213
7.453400 -6.161866 0.959880
7.240000 -6.435880 0.911768
7.025410 -6.705170 0.862362
6.806190 -6.968950 0.826274
6.585530 -7.223590 0.794847
6.358900 -7.464600 0.754268
6.118080 -7.692380 0.732474
5.859130 -7.892640 0.709190
5.546210 -8.011630 0.697243
5.167729 -8.033120 0.695496
4.815685 -8.793130 0.611612
4.695455 -9.108070 0.565523
4.517552 -9.389870 0.517444
4.327951 -9.664660 0.468657
4.139802 -9.934310 0.402519
3.952271 -10.202830 0.322616
3.792548 -10.446250 0.168354
3.700814 -10.660620 -0.076728
3.569739 -10.858750 -0.263431
3.471359 -10.709780 0.106027
3.149185 -10.712690 0.167108
2.832740 -10.654630 0.234332
2.497449 -10.585950 0.250824
2.136582 -10.511700 0.228199
1.789234 -10.533740 0.170269
1.450891 -10.576630 0.096257
1.132667 -10.662840 0.013012
0.842988 -10.807690 -0.071370
0.628281 -11.118080 -0.154931
0.817086 -11.542230 -0.200671
-8.396322 -2.775250 -7.866950
-8.123321 -2.617800 -7.421860
-7.848578 -2.468530 -6.975670
-7.762654 -2.328130 -7.430990
-7.698190 -2.183020 -7.820540
-7.614472 -2.052590 -8.125130
-7.479848 -1.854560 -8.300480
-7.285656 -1.606170 -8.455480
-7.070550 -1.359030 -8.675570
-6.841068 -1.150360 -8.918900
-6.605384 -0.966620 -9.139230
-6.382214 -0.775390 -9.308300
-6.158602 -0.591190 -9.462540
-6.025252 -0.473820 -9.655090
-5.757219 -0.342090 -9.473520
-5.387196 -0.151070 -9.336980
-5.488953 -0.106460 -9.849460
-5.640764 -0.079080 -10.350350
-5.803392 -0.085840 -10.846260
-5.952526 -0.093920 -11.333000
-6.053933 -0.073860 -11.811530
-6.042962 -0.003610 -12.250470
-6.001401 0.076750 -12.651510
-6.020260 0.084380 -12.990260
-5.818146 0.248560 -13.100720
-5.588359 0.428950 -13.292550
-5.366872 0.565950 -13.451340
-5.021060 0.692790 -13.219970
-4.563790 0.802810 -12.978350
-4.069117 0.835140 -12.745510
-3.529322 0.836510 -12.510940
-2.911480 0.733140 -12.244280
-2.658564 0.723160 -12.836300
-2.528716 0.728930 -13.322190
-2.433982 0.779380 -13.724950
10.538960 0.926868 -2.109607
10.405450 0.320331 -1.955093
10.669600 0.263041 -1.609605
10.857280 0.339938 -1.241963
10.891940 0.502254 -0.842778
10.727300 0.697985 -1.255650
10.693320 1.065027 -1.468950
10.593640 1.470712 -1.688737
10.446740 1.845359 -1.976190
10.263590 2.165472 -2.310418
10.051210 2.451603 -2.650800
9.851640 2.732820 -2.954054
9.654520 3.002286 -3.201867
9.425260 3.218503 -3.392135
9.257760 3.405209 -3.564735
8.812800 3.838157 -3.198870
8.571040 4.103094 -3.113625
8.412160 4.401012 -2.980547
8.192010 4.436579 -3.463438
8.005580 4.530187 -4.001812
7.887470 4.580677 -4.580360
7.809460 4.617353 -5.151928
-12.347828 -9.302440 -0.594177
-12.487128 -8.918690 -0.791629
-12.481901 -8.512270 -1.030107
-12.523828 -8.489700 -0.464909
-12.554541 -8.101160 -0.737767
-12.578316 -7.739530 -1.102995
-12.321579 -7.698140 -0.624730
-11.992262 -7.742180 -0.280367
-11.962556 -7.399970 -0.640630
-11.904262 -7.110630 -1.042156
-11.846771 -6.921000 -1.385785
-11.381764 -6.553550 -1.859107
-11.172600 -6.367070 -2.218495
-10.966071 -6.174740 -2.508262
-10.789304 -5.919550 -2.712515
-10.648397 -5.622980 -2.831702
-10.507206 -5.299570 -2.892467
-10.324970 -4.963880 -2.941145
-10.115770 -4.603910 -3.007757
-9.864093 -4.234580 -3.157155
-9.547861 -3.847770 -3.441458
-9.418816 -3.576430 -4.085500
-9.275143 -3.400350 -4.591780
-9.118617 -3.225730 -5.070860
-8.958891 -3.076530 -5.579020
-8.805813 -2.972270 -6.129530
-8.659061 -2.889860 -6.707080
-8.522495 -2.823550 -7.292420
10.844140 4.877488 -0.785567
10.793980 4.580607 -1.093024
10.676560 4.180455 -1.024496
10.660470 3.847111 -0.789435
10.725210 3.514835 -0.605618
10.773140 3.192473 -0.398409
10.822220 2.864412 -0.218394
10.862700 2.560533 -0.082087
10.877290 2.273482 -0.024302
10.800660 1.981085 -0.132761
10.984230 0.726960 -0.356448
11.524540 -0.077816 0.202113
11.407560 -0.282080 0.441156
11.256360 -0.279095 0.781129
11.231780 -0.208607 1.141162
11.012850 -0.292131 1.416056
10.774480 -0.539501 1.507450
10.549640 -0.788431 1.590212
10.346030 -1.074124 1.623829
10.153920 -1.371341 1.646130
9.962380 -1.659147 1.646736
9.766570 -1.942579 1.610951
9.569130 -2.226996 1.572488
9.367340 -2.508172 1.531970
9.158630 -2.789357 1.485182
8.951060 -3.073575 1.437214
8.743000 -3.363838 1.395734
8.538190 -3.656552 1.345258
8.329190 -3.952320 1.289874
8.125350 -4.246464 1.234686
7.915570 -4.538175 1.184608
7.701790 -4.826202 1.134048
7.487890 -5.112163 1.086703
7.272180 -5.391780 1.052956
7.057310 -5.669149 1.015711
6.842820 -5.943160 0.964219
6.629430 -6.215180 0.926519
6.411980 -6.479320 0.898702
6.197830 -6.733130 0.857286
5.981540 -6.975700 0.823572
5.757990 -7.203800 0.797882
5.517030 -7.394020 0.762141
5.260810 -7.529770 0.740370
4.974431 -7.566820 0.722789
4.699405 -7.837310 0.682051
4.781519 -8.335600 0.653614
4.433007 -8.511870 0.597283
4.279752 -8.708510 0.552961
4.094762 -8.951550 0.496096
3.911296 -9.215890 0.407742
3.733266 -9.477380 0.307866
3.584747 -9.740320 0.161639
3.390655 -9.998940 0.073940
3.399059 -10.167230 -0.212714
3.482619 -10.299490 -0.516503
3.267179 -10.269800 -0.279526
3.078192 -10.140440 -0.041625
2.789315 -10.048770 0.057241
2.471792 -9.929810 0.137045
2.068717 -9.688090 0.119129
1.666907 -9.850650 0.125006
1.319425 -9.920030 0.063611
0.977590 -9.980430 -0.022153
0.568575 -10.110990 -0.092680
0.383706 -10.683020 -0.139248
0.273736 -11.095110 -0.202101
0.207309 -11.375610 -0.264661
0.018484 -11.339850 -0.284802
-0.233942 -11.299410 -0.304625
-0.521811 -11.253580 -0.323737
-0.830879 -11.204830 -0.325045
-1.150501 -11.148890 -0.324645
-1.480568 -11.084040 -0.308704
-1.818589 -11.011250 -0.289022
-2.181246 -10.940420 -0.270798
-2.532998 -10.956380 -0.227782
-2.880997 -10.975190 -0.201844
-3.222381 -10.983180 -0.154583
-3.561101 -10.982580 -0.104153
-3.898348 -10.978990 -0.032765
-4.238434 -10.965770 0.039571
-4.578315 -10.943550 0.118913
-4.917224 -10.917890 0.211149
-5.262902 -10.883700 0.295881
-5.612179 -10.844060 0.382158
-5.960446 -10.799360 0.480515
-6.316088 -10.744710 0.575322
-6.675797 -10.678560 0.666167
-7.041913 -10.603230 0.752512
-7.414827 -10.519900 0.826623
-7.787423 -10.433000 0.903896
-8.168380 -10.346000 0.958525
-8.552464 -10.266390 1.026903
-8.938357 -10.186210 1.082557
-9.328581 -10.103360 1.118618
-9.716861 -10.016120 1.157679
-10.101018 -9.935160 1.164894
-10.475946 -9.868120 1.157143
-10.841322 -9.819110 1.132645
-11.198630 -9.730100 1.060476
-11.546763 -9.622250 0.916811
-11.886366 -9.513610 0.708212
-12.165896 -9.419500 0.380383
-12.377462 -9.349030 -0.044871
7.649180 5.012747 -5.261508
-1.039719 -0.342460 -13.150510
-1.196399 -0.236870 -12.585660
-1.342418 -0.163810 -12.030850
-1.491644 -0.099830 -11.484800
-1.194539 -0.416500 -11.478870
-0.935841 -0.738130 -11.445520
-0.739369 -1.082420 -11.381560
-0.553535 -1.410560 -11.289680
-0.389818 -1.716380 -11.087480
-0.291373 -1.949460 -10.723380
0.182861 -2.806880 -10.446200
0.388174 -3.132860 -10.497500
0.536137 -3.389630 -10.479490
0.628948 -3.579890 -10.296050
0.723032 -3.777900 -10.016990
0.838492 -4.009380 -9.718780
0.980871 -4.267860 -9.467360
1.097415 -4.551850 -9.373460
1.049207 -4.572130 -8.811370
1.138467 -4.884490 -8.929880
1.087685 -5.171260 -9.097240
1.342188 -5.306970 -9.277680
1.631739 -5.208500 -9.467240
1.758876 -4.915510 -9.659990
1.685041 -4.608870 -9.855280
1.379077 -4.462960 -10.003160
1.141433 -4.157420 -9.906910
0.914481 -3.822060 -9.810650
0.707545 -3.460130 -9.723830
0.468257 -3.069770 -9.647190
0.216553 -2.639790 -9.533820
-0.027415 -2.223930 -9.433940
-0.258146 -1.831130 -9.378160
-0.470140 -1.468930 -9.361170
-0.667300 -1.142580 -9.348470
-0.637460 -1.130380 -9.848230
-0.590380 -1.139510 -10.376650
-0.524160 -1.178870 -10.929080
-0.430680 -1.279030 -11.496680
-0.309250 -1.424930 -12.072340
-0.048432 -2.410940 -10.362000
-0.274519 -2.020910 -10.208360
-0.516940 -1.043450 -12.070920
-0.788860 -0.493210 -12.026690
-0.821100 -0.172070 -12.442440
-0.814080 0.057950 -12.817310
-0.727870 -0.388230 -13.250820
-0.832360 0.368290 -12.009770
-0.686660 0.875870 -11.663760
-0.406160 1.336850 -11.382180
-0.028540 1.721437 -11.170400
0.399250 2.036423 -11.013960
0.819450 2.313972 -10.900280
1.196460 2.555219 -10.775310
1.559880 2.769993 -10.618060
0.029290 -10.897960 -0.201720
-0.248230 -10.765260 -0.216765
-0.546985 -10.682400 -0.230880
-0.857688 -10.610730 -0.235781
-1.177715 -10.540750 -0.239072
-1.500867 -10.462960 -0.236976
-1.840909 -10.353790 -0.206785
-2.244660 -10.117070 -0.169960
-2.634258 -10.280920 -0.156256
-2.975627 -10.325820 -0.114768
-3.312882 -10.341520 -0.087247
-3.648920 -10.345970 -0.034064
-3.979944 -10.346270 0.040215
-4.311449 -10.335970 0.116319
-4.647950 -10.318850 0.189342
-4.990126 -10.297260 0.268670
-5.332504 -10.268460 0.359074
-5.678202 -10.232410 0.452307
-6.025882 -10.188600 0.545332
-6.381348 -10.131700 0.632540
-6.747457 -10.065890 0.717646
-7.115332 -9.987080 0.794900
-7.489268 -9.902050 0.863365
-7.870561 -9.813390 0.918073
-8.258094 -9.730860 0.958028
-8.645402 -9.660330 0.997363
-9.035201 -9.593760 1.026394
-9.431288 -9.522890 1.036804
-9.829338 -9.442250 1.049381
-10.225285 -9.362500 1.043985
-10.601722 -9.311540 1.033702
-10.924694 -9.326450 1.016342
-11.259437 -9.241770 0.918757
-11.603417 -9.136210 0.765202
-11.938960 -9.039430 0.534379
-12.244686 -8.959630 0.211734
-12.426922 -8.918130 -0.254760
-8.243627 -2.697640 -6.884120
-7.957130 -2.595010 -6.467320
-7.648067 -2.505020 -6.051000
-7.566082 -2.325560 -6.548730
-7.498768 -2.152770 -7.012450
-7.448040 -2.008350 -7.436120
-7.452322 -1.931080 -7.789830
-7.281821 -1.749750 -7.811560
-7.071880 -1.517250 -7.950280
-6.855747 -1.286920 -8.158650
-6.623505 -1.080700 -8.394960
-6.384367 -0.895850 -8.597960
-6.124726 -0.695270 -8.763710
-5.794713 -0.466820 -8.948810
-5.300182 -0.244150 -8.793780
-4.839478 -0.077260 -8.697340
-4.950856 0.030550 -9.234670
-5.068889 0.108580 -9.759980
-5.218841 0.144040 -10.272440
-5.388786 0.170930 -10.757650
-5.533973 0.184030 -11.228210
-5.619636 0.202280 -11.674390
-5.616084 0.270170 -12.109160
-5.558002 0.367560 -12.607510
-5.257611 0.569210 -12.934470
8.262960 3.643540 -3.985002
8.311670 3.452150 -3.522314
8.365310 3.222159 -3.064564
8.418510 2.979116 -2.575016
8.493240 2.688587 -2.082006
8.589200 2.365928 -1.594419
8.704370 2.008173 -1.113920
8.842190 1.624790 -0.641556
9.156030 1.731048 -0.793735
9.463340 1.819928 -0.965009
9.762220 1.867103 -1.158430
10.051120 1.850857 -1.371312
10.290510 1.759442 -1.578583
10.451130 1.450206 -1.796081
10.479870 1.307709 -1.788447
10.546620 0.815607 -1.687364
10.618910 0.658554 -1.380602
10.686380 -0.012724 -1.202862
10.957810 0.044548 -0.837463
11.067510 0.257019 -0.485216
11.068620 0.357450 0.003761
10.819490 0.851617 -0.861489
10.720640 1.104526 -0.991247
10.604370 1.488653 -1.138838
10.400710 1.841712 -1.454981
10.205050 2.155885 -1.787282
10.015250 2.464967 -2.109733
9.831430 2.759852 -2.390713
9.623960 3.035047 -2.638044
9.390110 3.297260 -2.895706
-12.314954 -8.086410 -0.283695
-11.991493 -8.141710 0.059888
-11.632958 -8.257820 0.324633
-11.632304 -7.840390 0.010020
-11.620938 -7.459170 -0.383201
-11.602623 -7.107860 -0.819231
7.912240 5.309118 -3.327033
8.044080 5.466256 -2.940535
8.224570 5.500367 -2.551188
8.472540 5.503419 -2.127700
8.774820 5.460085 -1.705676
9.151170 5.385055 -1.317850
9.589210 5.299127 -0.975436
10.151140 5.246500 -0.652058
10.855920 5.209989 -0.341220
-1.475303 0.111410 -13.045000
-1.632950 0.143170 -12.488910
-1.748538 0.166420 -11.952670
-1.862759 0.179010 -11.466550
-2.023310 0.197530 -10.959340
-1.661482 -0.030800 -10.937140
-1.360084 -0.315440 -10.900400
-1.093512 -0.611020 -10.853450
-0.866102 -0.911930 -10.787320
-0.694425 -1.228780 -10.707500
-0.542058 -1.513510 -10.592140
-0.432764 -1.717510 -10.461540
-0.462365 -1.708510 -10.074110
-0.498421 -1.697720 -9.569810
-0.296606 -2.043660 -9.668890
-0.084039 -2.413460 -9.786780
0.135229 -2.766300 -9.899300
0.316222 -3.068250 -10.005660
0.444738 -3.276370 -10.116760
0.490134 -3.378450 -9.854090
0.557639 -3.555890 -9.488530
0.690386 -3.829630 -9.130370
0.849198 -4.186570 -8.720050
-0.626418 -1.414350 -10.084610
-0.690380 -1.361650 -9.541080
-0.732621 -1.337820 -8.974250
-0.530034 -1.697850 -9.024290
-0.315878 -2.058310 -9.121530
-0.096495 -2.422800 -9.230900
0.106140 -2.783130 -9.371680
0.315694 -3.106620 -9.549680
0.528752 -3.592630 -8.564350
0.641358 -3.892150 -8.152320
0.755661 -4.139220 -7.628520
0.906809 -4.409020 -8.013010
1.061607 -4.696440 -8.237920
1.142945 -4.964760 -8.426370
1.129778 -5.283880 -8.608710
1.430625 -5.369730 -8.779990
1.682328 -5.165760 -8.945350
1.724811 -4.843540 -9.128100
1.551799 -4.572630 -9.339200
1.273250 -4.434670 -9.508930
1.052455 -4.100950 -9.373830
0.840444 -3.739050 -9.269480
0.628203 -3.372620 -9.177200
0.393509 -2.980880 -9.097250
0.158045 -2.581070 -8.999260
-0.072226 -2.188650 -8.912330
-0.297823 -1.809490 -8.864430
-0.509340 -1.461650 -8.859540
-0.682820 -1.149730 -8.876830
-0.803600 -0.862840 -8.847370
-0.814290 -0.818050 -9.275530
-0.806710 -0.787090 -9.764150
-0.777320 -0.782690 -10.294090
-0.728780 -0.817950 -10.847620
-0.648260 -0.894510 -11.445440
7.983470 3.433705 -3.367750
8.051170 3.197295 -2.901748
8.069000 2.928570 -2.424960
8.152110 2.610668 -1.930158
8.256170 2.259004 -1.446779
8.380040 1.891088 -0.974031
8.526290 1.488153 -0.523910
8.689240 1.058927 -0.095017
9.005550 1.209190 -0.186754
9.314560 1.342298 -0.324224
9.616150 1.461493 -0.481471
9.910130 1.532315 -0.671329
10.192200 1.569665 -0.870390
10.441790 1.498552 -1.102487
10.496120 1.355907 -1.284328
10.491130 1.127552 -1.488137
10.613710 1.043934 -1.199484
10.569300 0.395826 -1.051854
10.814450 0.413650 -0.638963
11.175360 -0.168063 -0.366212
11.184860 0.045155 -0.222196
11.175000 0.039872 0.247421
-1.963516 0.583310 -13.860600
-0.885810 0.196330 -11.550350
-0.783640 0.751780 -11.192150
-0.548200 1.222520 -10.907400
-0.225640 1.636017 -10.678680
0.145890 1.981213 -10.502650
0.544080 2.245502 -10.360680
0.911380 2.476631 -10.214920
1.232220 2.675582 -10.030640
1.498420 2.853886 -9.750740
1.651360 2.989355 -9.349330
1.751870 3.074468 -8.940070
1.751160 3.128468 -8.463150
1.780980 3.155359 -7.944880
1.841040 3.169042 -7.420620
1.949990 3.153690 -6.907650
2.092710 3.126693 -6.419630
2.266510 3.073427 -5.956600
2.440780 2.997236 -5.501190
2.863240 3.223782 -5.702660
3.302760 3.453892 -5.933170
3.719430 3.598316 -6.147030
3.994120 3.683985 -6.328820
4.167720 3.677249 -6.157530
4.403910 3.663268 -5.930670
4.659520 3.641183 -5.670070
4.915180 3.634805 -5.375560
5.171560 3.595490 -5.072380
5.414410 3.580415 -4.761659
5.653840 3.582412 -4.477290
5.865330 3.594050 -4.324042
5.894300 3.450322 -3.951254
6.009380 3.267346 -3.511197
6.157220 3.062488 -3.066309
6.321010 2.832676 -2.624755
6.488280 2.568026 -2.189638
6.798260 2.771149 -2.384322
7.105360 2.977994 -2.600337
7.412500 3.182131 -2.855055
7.679540 3.358162 -3.150396
-11.084358 -6.653550 -1.418089
-10.918020 -6.446290 -1.746364
-10.726929 -6.231060 -1.991738
-10.566005 -5.959230 -2.148854
-10.416612 -5.658590 -2.245674
-10.248193 -5.348020 -2.314686
-10.060566 -5.016860 -2.377337
-9.840109 -4.669980 -2.466650
-9.598727 -4.337630 -2.614649
-9.336606 -4.071070 -2.793892
-9.099943 -3.491340 -3.847140
-8.994055 -3.320490 -4.269330
-8.824938 -3.165950 -4.718720
-8.669643 -3.003780 -5.214100
-8.515803 -2.890990 -5.759180
-8.376128 -2.784730 -6.321960
10.887310 1.134796 -0.366045
10.721380 1.609889 -0.418648
-2.227197 0.430470 -11.863790
-2.294838 0.404940 -11.403710
-2.411478 0.392150 -10.974780
-2.571352 0.372250 -10.539020
-2.202961 0.206810 -10.484590
-1.853438 0.012990 -10.397380
-1.533404 -0.231120 -10.326720
-1.237281 -0.495550 -10.260000
-0.996527 -0.793670 -10.198260
-0.795832 -1.102420 -10.138090
-0.833000 -0.418200 -11.292260
-0.907610 0.129140 -10.990830
-0.839660 0.641290 -10.690910
-0.651330 1.113070 -10.408250
-0.375240 1.528211 -10.177660
-0.041810 1.875090 -9.988040
0.299120 2.168949 -9.832220
0.635970 2.403800 -9.680310
0.928720 2.598098 -9.499110
1.169320 2.748366 -9.259080
1.346340 2.879282 -8.957960
1.503340 2.980906 -8.754710
1.444590 2.982060 -8.352920
1.440160 2.976913 -7.844560
1.487640 2.955613 -7.308860
1.589350 2.923401 -6.785940
1.717460 2.870204 -6.281320
1.879760 2.797759 -5.800070
2.066260 2.704545 -5.343250
2.244930 2.607744 -4.895500
2.621880 2.875393 -5.065260
3.017010 3.108620 -5.256150
3.462670 3.315569 -5.477970
3.858470 3.526008 -5.799770
4.079410 3.466612 -5.462250
4.365810 3.434909 -5.182030
4.639280 3.410919 -4.892950
4.911510 3.370648 -4.595270
5.190400 3.323505 -4.282180
5.509070 3.292204 -3.909741
5.679250 3.056664 -3.347489
5.841680 2.842058 -2.873849
6.014090 2.605886 -2.438178
6.189180 2.342740 -2.021160
6.361240 2.042943 -1.621081
6.654650 2.276837 -1.754167
6.963890 2.484451 -1.927426
7.285540 2.697213 -2.115507
7.660290 2.907661 -2.379382
7.793460 3.167705 -2.799510
8.959410 3.901097 -2.607526
8.766510 4.141824 -2.629131
8.641850 4.391707 -2.519366
8.556660 4.659094 -2.388352
8.300330 4.696523 -2.824462
8.077460 4.791414 -3.287911
7.812620 5.016210 -3.837528
7.687990 5.016804 -4.589102
-8.075217 -2.716420 -5.921450
-7.758967 -2.673730 -5.516730
-7.425744 -2.646900 -5.122060
-7.327424 -2.426090 -5.645420
-7.248169 -2.209260 -6.141380
-7.182395 -1.997660 -6.619970
-7.114176 -1.765860 -7.178030
-6.849225 -1.476440 -7.417930
-6.616088 -1.247040 -7.646690
-6.394005 -1.060750 -7.877150
-6.164877 -0.878790 -8.054930
-5.889020 -0.696980 -8.171660
-5.556104 -0.514700 -8.240020
-5.151826 -0.352740 -8.202440
-4.716831 -0.198290 -8.134090
-4.251816 -0.086670 -8.087450
-4.355650 0.054650 -8.634600
-4.467269 0.167800 -9.181580
-4.593700 0.262460 -9.716200
-4.735055 0.345590 -10.253560
-4.943006 0.367610 -10.753290
-5.115269 0.376690 -11.195540
-5.218844 0.390150 -11.583100
-5.174470 0.464630 -11.943680
-5.039543 0.582860 -12.314900
-4.807880 0.700320 -12.648220
-0.883226 -1.027630 -9.561980
-0.963669 -1.002320 -8.979070
-1.027895 -1.011840 -8.386470
-0.771848 -1.352030 -8.397800
-0.552104 -1.713380 -8.457990
-0.335478 -2.080540 -8.557170
-0.120397 -2.438650 -8.671540
0.093964 -2.807690 -8.803120
0.346138 -3.236660 -8.933160
0.388141 -3.403090 -7.974260
0.517392 -3.676660 -7.632090
0.628789 -3.919090 -7.195100
0.738332 -4.180340 -6.755650
0.870503 -4.391240 -7.140800
1.017297 -4.641430 -7.459520
1.150286 -4.900640 -7.708700
1.036358 -5.136830 -7.908230
1.191906 -5.389360 -8.100360
1.518574 -5.421080 -8.255070
1.708869 -5.136290 -8.396830
1.685101 -4.788070 -8.566830
1.355821 -4.751210 -8.871940
1.189372 -4.467150 -9.028420
0.999167 -4.079030 -8.856490
0.777809 -3.697280 -8.733550
0.559050 -3.310250 -8.642700
0.335628 -2.933180 -8.554080
0.104632 -2.551170 -8.460940
-0.120784 -2.154640 -8.391310
-0.346789 -1.774540 -8.353700
-0.551170 -1.423640 -8.376650
-0.702730 -1.121270 -8.454570
-0.784050 -0.904840 -8.526880
-0.819970 -0.730470 -8.300530
-0.867220 -0.580970 -8.662230
-0.895750 -0.481960 -9.105510
-0.904020 -0.417720 -9.599100
-0.895010 -0.386340 -10.131410
-0.871830 -0.389160 -10.680690
0.078038 -10.402600 -0.147196
-0.231620 -10.222460 -0.163612
-0.546697 -10.103080 -0.175891
-0.866054 -10.014230 -0.183172
-1.184335 -9.938360 -0.187108
-1.499917 -9.863750 -0.196986
-1.801462 -9.744870 -0.192246
-2.078333 -9.537780 -0.168039
-2.779360 -9.617320 -0.121885
-3.086406 -9.686560 -0.082438
-3.408366 -9.698820 -0.045403
-3.738260 -9.705150 -0.007033
-4.066653 -9.706710 0.060354
-4.394751 -9.702350 0.130815
-4.726400 -9.692800 0.216877
-5.064211 -9.678490 0.297677
-5.407616 -9.653970 0.377988
-5.751728 -9.620430 0.464200
-6.098688 -9.577310 0.550460
-6.457647 -9.520650 0.626448
-6.822637 -9.451150 0.707255
-7.199856 -9.370540 0.768176
-7.577975 -9.283640 0.821544
-7.968542 -9.190910 0.870014
-8.360618 -9.112390 0.882114
-8.751048 -9.057910 0.895049
-9.144578 -9.014410 0.900134
-9.542267 -8.960000 0.896607
-9.940728 -8.886110 0.880144
-10.350949 -8.793820 0.853716
-10.805991 -8.707250 0.776051
-11.010105 -8.945940 0.853933
-11.295953 -8.814340 0.739171
-11.636714 -8.683850 0.570789
-11.973538 -8.578970 0.327341
10.445280 1.962889 -0.936103
10.253880 2.263332 -1.290869
10.080960 2.554208 -1.585874
9.901330 2.845633 -1.838691
9.702770 3.126125 -2.063501
9.465220 3.393706 -2.278164
9.203130 3.641426 -2.503917
9.098300 3.547762 -3.235132
-12.286342 -8.507780 -0.019222
8.069370 5.074457 -3.038234
8.112150 5.257571 -2.849193
8.258150 5.237429 -2.557782
9.541960 4.978435 -1.202307
10.132450 4.923392 -0.943743
-11.257053 -8.412490 0.562962
-11.255560 -7.979790 0.245859
-11.263693 -7.567640 -0.130898
-11.257388 -7.194370 -0.542266
-11.208692 -6.903600 -1.013898
-11.590823 -6.784420 -1.400713
-9.095303 -3.687830 -3.339336
-9.001528 -3.913160 -2.804144
10.553510 2.156296 -0.568784
10.389230 2.400609 -0.858001
10.237290 2.672136 -1.098138
10.075730 2.965620 -1.317469
9.897540 3.259742 -1.516049
9.678140 3.540783 -1.717309
9.412470 3.805321 -1.919769
9.152090 4.049360 -2.143176
8.936680 4.190144 -2.295813
8.909800 4.386851 -2.128667
8.871900 4.640068 -1.980558
8.793990 4.901557 -1.914071
8.504700 4.934079 -2.277771
8.261770 4.979303 -2.676722
-10.886927 -7.719070 0.074280
-10.910861 -7.325470 -0.301880
-10.877410 -7.016830 -0.697024
-10.784648 -6.776500 -1.048000
-10.646587 -6.559760 -1.311634
-10.475620 -6.334080 -1.502929
-10.311552 -6.063820 -1.615785
-10.140234 -5.777830 -1.698394
-9.964444 -5.467750 -1.765036
-9.759675 -5.142220 -1.848733
-9.529387 -4.816570 -1.974290
-9.315869 -4.484060 -2.158601
-9.184829 -4.242870 -2.409509
-8.894291 -4.185850 -2.306667
-8.535801 -4.065780 -2.331411
-8.650468 -3.785710 -2.842731
-8.771730 -3.585900 -3.330525
-8.869602 -3.456820 -3.706510
-8.732158 -3.320390 -3.957990
-8.549806 -3.148190 -4.334730
-8.362711 -2.995990 -4.824710
-8.211968 -2.844150 -5.366530
-4.336541 0.785760 -12.396770
-3.893704 0.793720 -12.126540
-3.475092 0.758870 -11.846510
-2.186108 0.470130 -12.361580
-2.044185 0.478470 -12.900750
-1.934880 0.518260 -13.418430
-8.888740 -4.596600 -1.754297
-8.436546 -4.433960 -1.831909
-8.056446 -4.315340 -1.917137
-8.161311 -3.955770 -2.425958
-8.298610 -3.631840 -2.992705
-8.510193 -3.417370 -3.522235
10.844810 -0.065355 0.408156
11.045180 0.267117 0.831473
10.770460 0.071110 1.006183
10.513570 -0.097793 1.184211
10.272530 -0.345048 1.276152
10.057670 -0.626098 1.359391
9.869660 -0.924508 1.412103
9.669090 -1.201004 1.439628
9.464740 -1.469345 1.434671
9.255100 -1.739084 1.414144
9.035440 -2.008041 1.404727
8.820580 -2.282880 1.369052
8.604990 -2.564857 1.335980
8.384450 -2.852450 1.318174
8.171780 -3.148100 1.286697
7.961330 -3.447263 1.233920
7.747710 -3.744180 1.200526
7.534720 -4.036980 1.159175
7.319520 -4.328923 1.108083
7.098640 -4.614101 1.085537
6.878820 -4.895150 1.051753
6.662120 -5.174764 1.017937
6.446610 -5.450740 0.978545
6.232810 -5.724660 0.949710
6.018670 -5.991600 0.913837
5.806820 -6.249500 0.879908
5.598100 -6.498040 0.855684
5.387930 -6.732220 0.818319
5.183790 -6.949950 0.782878
4.992460 -7.134200 0.751226
4.621382 -7.411060 0.690267
4.242260 -7.182310 0.632372
4.232682 -7.554600 0.618474
4.204065 -8.032690 0.592783
-1.120494 -0.719220 -9.607910
-1.234824 -0.686110 -9.014670
-1.333556 -0.698320 -8.416730
-1.411226 -0.771500 -7.809180
-1.080787 -1.072870 -7.786040
-0.798012 -1.397580 -7.809050
-0.564394 -1.746600 -7.879510
-0.354166 -2.102750 -7.986190
-0.147797 -2.451810 -8.109000
0.058540 -2.773230 -8.203710
0.232865 -3.112210 -8.211490
0.397170 -3.495390 -7.148210
0.502481 -3.734260 -6.752800
0.616560 -3.990040 -6.345480
0.728653 -4.259770 -5.952030
0.851695 -4.444290 -6.322910
0.985406 -4.647620 -6.668780
1.122975 -4.872120 -6.963220
1.247310 -5.119850 -7.209700
1.042963 -5.332020 -7.388850
1.247040 -5.540160 -7.581550
1.581029 -5.455050 -7.707340
1.697261 -5.109900 -7.832140
1.632934 -4.770330 -7.984230
1.251733 -4.726250 -8.325650
1.105338 -4.373450 -8.385290
0.931854 -4.044990 -8.333100
0.721275 -3.663280 -8.206610
0.494330 -3.270650 -8.118400
0.272601 -2.883100 -8.022860
0.046147 -2.497000 -7.940100
-0.181480 -2.102200 -7.877600
-0.400710 -1.714630 -7.849180
-0.614800 -1.329710 -7.877950
-0.742800 -0.983690 -8.054250
-0.769700 -0.755840 -7.635370
-0.836040 -0.478030 -7.998760
-0.882970 -0.275330 -8.407910
-0.913610 -0.132000 -8.871410
-0.929440 -0.031290 -9.372710
-0.932760 0.035750 -9.898420
-0.923870 0.083730 -10.438870
10.662320 2.317239 -0.353172
10.584350 2.517257 -0.480348
10.078570 3.728460 -1.217735
9.870080 4.112845 -1.421970
9.286460 4.299608 -1.792666
9.087330 4.887889 -1.633549
9.122050 5.100652 -1.466211
8.787550 5.168886 -1.800328
8.483450 5.212605 -2.182076
10.237500 3.398369 -1.020820
10.368820 3.084841 -0.832311
10.481850 2.788332 -0.649323
7.920300 2.138090 -1.307462
8.061230 1.732021 -0.856706
8.210400 1.326920 -0.414279
8.380410 0.880360 -0.018022
8.562290 0.423196 0.358921
8.869750 0.610260 0.313942
9.193940 0.761731 0.250519
9.500960 0.931033 0.126482
9.802360 1.081292 -0.026214
10.093100 1.195473 -0.206553
10.380280 1.239006 -0.429936
10.607160 1.294582 -0.628068
10.547160 0.985623 -0.997967
10.768410 0.868408 -0.564667
10.646830 0.187905 -0.332422
11.015590 0.060264 0.095047
-2.498546 -9.460950 -0.152510
-2.295830 -9.125080 -0.185666
-2.747754 0.615140 -11.741240
-2.713748 0.545790 -11.357360
-3.086313 0.434190 -10.153450
-2.713319 0.347780 -10.134130
-2.392451 0.218740 -10.021160
-2.065757 0.024890 -9.882040
-1.718590 -0.176420 -9.755560
-1.395844 -0.426350 -9.672790
-7.888520 -2.850030 -4.959920
-7.539144 -2.875000 -4.583410
-7.170684 -2.897130 -4.236770
-7.076699 -2.627380 -4.755420
-6.988076 -2.367510 -5.249570
-6.914087 -2.120790 -5.725740
-6.840369 -1.896860 -6.184480
-6.753800 -1.665290 -6.606950
-6.572042 -1.442660 -6.918200
-6.367869 -1.245600 -7.162710
-6.164542 -1.061080 -7.378510
-5.965174 -0.899500 -7.558440
-5.700196 -0.757300 -7.599160
-5.375152 -0.611170 -7.614830
-5.004073 -0.466300 -7.599770
-4.593630 -0.342480 -7.566620
-4.149309 -0.238610 -7.533770
-3.677747 -0.203880 -7.523210
-3.750901 -0.036110 -8.065870
-3.846891 0.115460 -8.612480
-3.956749 0.249940 -9.163880
-4.070196 0.369350 -9.713870
-4.136271 0.495200 -10.359080
-4.503425 0.518190 -10.881220
-4.922723 0.498400 -11.536910
-4.597716 0.686540 -12.059100
0.142159 -9.808520 -0.151167
-0.208351 -9.632390 -0.157967
-0.539171 -9.503000 -0.167065
-0.868088 -9.408460 -0.179107
-1.192858 -9.331470 -0.179916
-1.504255 -9.268580 -0.184023
-1.783317 -9.227270 -0.194674
-1.994290 -9.198390 -0.196560
-2.116295 -8.828500 -0.214006
-2.298876 -8.342580 -0.261672
-2.487050 -8.675610 -0.216545
-2.665703 -8.949700 -0.166146
-2.907723 -9.032290 -0.139081
-3.192217 -9.055140 -0.095144
-3.502509 -9.057060 -0.062747
-3.822746 -9.058350 -0.011352
-4.151538 -9.066270 0.030997
-4.483188 -9.069290 0.102151
-4.812429 -9.068780 0.183915
-5.147720 -9.061480 0.266848
-5.486850 -9.045000 0.341830
-5.832438 -9.013800 0.427319
-6.180180 -8.971300 0.505224
-6.536488 -8.912240 0.582892
-6.907297 -8.840970 0.646323
-7.289125 -8.758250 0.701198
-7.677996 -8.668630 0.733755
-8.078337 -8.578650 0.743611
-8.481233 -8.508090 0.728950
-8.877099 -8.465480 0.724163
-9.261583 -8.459180 0.701536
-9.650385 -8.431250 0.683227
-10.043345 -8.369950 0.646581
-10.440587 -8.282560 0.565802
-10.855741 -8.140330 0.460030
-10.509232 -7.825950 0.247555
-10.559453 -7.445270 -0.108088
-10.560056 -7.135550 -0.456039
-10.524468 -6.885180 -0.739443
-10.392361 -6.704360 -0.924304
-10.219448 -6.492980 -1.045992
-10.040103 -6.244870 -1.115035
-9.852336 -5.967710 -1.175312
-9.652919 -5.667630 -1.262280
-9.439280 -5.354710 -1.371987
-9.195542 -5.008310 -1.506687
-8.238285 -3.231690 -3.877150
-8.043427 -3.026550 -4.407340
3.903329 -8.255360 0.500540
3.684782 -8.505630 0.398583
3.493214 -8.770880 0.288421
3.365605 -9.022990 0.094789
3.208670 -9.293630 -0.049755
3.099750 -9.542490 -0.232367
3.188988 -9.668180 -0.506687
3.365976 -9.746630 -0.751761
3.078588 -9.822000 -0.654363
2.975823 -9.640000 -0.381911
2.764124 -9.496170 -0.216592
2.506593 -9.359830 -0.109336
2.243593 -9.147580 -0.095317
1.534492 -9.187980 -0.000433
1.208623 -9.265070 -0.022333
0.874087 -9.297230 -0.092578
0.518973 -9.281280 -0.174294
0.149368 -9.142070 -0.234373
-0.192584 -9.003340 -0.221822
-0.537537 -8.883570 -0.217016
-0.878750 -8.788600 -0.218425
-1.216463 -8.713280 -0.218011
-1.545737 -8.671850 -0.214790
-1.861380 -8.677960 -0.223650
1.829705 -9.032770 -0.048915
2.043940 -8.740200 -0.222130
9.319820 4.656464 -1.528337
-4.198920 0.726860 -11.789940
-3.837940 0.713550 -11.504950
-0.868700 0.553360 -10.161310
-0.716840 1.001740 -9.892490
-0.480470 1.405640 -9.661490
-0.200490 1.756115 -9.467910
0.108690 2.051970 -9.307780
0.411130 2.298738 -9.161910
0.693330 2.500014 -9.008340
0.923960 2.654381 -8.811460
1.101050 2.786332 -8.404600
1.104620 2.761597 -7.767870
1.150860 2.717895 -7.204300
1.237520 2.669556 -6.665740
1.363990 2.590938 -6.152100
1.519560 2.510368 -5.659060
1.700950 2.420227 -5.186750
1.904820 2.302087 -4.744000
2.095910 2.179007 -4.308510
2.418940 2.473751 -4.470920
2.768760 2.726691 -4.643540
3.154110 2.958010 -4.814950
3.660720 3.177611 -4.959950
4.069780 3.179334 -4.695740
4.381370 3.148080 -4.422180
4.661430 3.114447 -4.136525
4.926710 3.049758 -3.844747
5.176040 2.957406 -3.510297
5.365410 2.789360 -3.091267
5.544500 2.582918 -2.673709
5.723440 2.355531 -2.263919
5.902700 2.093743 -1.869859
6.080040 1.807542 -1.481589
6.252830 1.485845 -1.111864
6.528520 1.710608 -1.220172
6.811680 1.944496 -1.328840
7.119580 2.152124 -1.471711
7.439070 2.351141 -1.628630
7.788370 2.502175 -1.800722
-2.013724 -7.972320 -0.313287
-2.377138 -7.499110 -0.394070
-2.555779 -7.904130 -0.309385
-2.692850 -8.289050 -0.241324
-2.782668 -8.585910 -0.202727
-2.987253 -8.514120 -0.184497
-3.254520 -8.458610 -0.153123
-3.576849 -8.412410 -0.115496
-3.910616 -8.414640 -0.083934
-4.239906 -8.424980 -0.035738
-4.571338 -8.438260 0.028868
-4.901008 -8.448440 0.106149
-5.234124 -8.455040 0.182048
-5.572523 -8.446500 0.262428
-5.915134 -8.420130 0.342339
-6.265415 -8.374600 0.418188
-6.621660 -8.314070 0.479359
-6.993803 -8.238940 0.534618
-7.377147 -8.156260 0.566230
-7.776790 -8.066300 0.588967
-8.183470 -7.986580 0.540535
-8.618418 -7.882080 0.509291
-9.026463 -7.900290 0.479858
-9.399259 -7.930710 0.457134
-9.762348 -7.949400 0.410381
-10.133509 -7.911780 0.347983
10.010000 4.575262 -1.208264
-1.557971 -0.404540 -9.081300
-1.691769 -0.430690 -8.482150
-1.791590 -0.512600 -7.873690
-1.857418 -0.649950 -7.262700
-1.467136 -0.897880 -7.196190
-1.118051 -1.179520 -7.174440
-0.819033 -1.488400 -7.208390
-0.562779 -1.807010 -7.292450
-0.356065 -2.145300 -7.415180
-0.159591 -2.465120 -7.554570
0.019599 -2.759670 -7.659090
0.125170 -2.980420 -7.321720
0.275456 -3.322340 -6.713660
0.376551 -3.551780 -6.320760
0.494133 -3.813290 -5.926060
0.619889 -4.099010 -5.556610
0.746044 -4.403790 -5.223000
0.850590 -4.539610 -5.580080
0.973995 -4.710670 -5.907440
1.114071 -4.887980 -6.218330
1.264188 -5.079510 -6.492570
1.349572 -5.336640 -6.725230
1.069372 -5.534370 -6.859830
1.315400 -5.674630 -7.035460
1.611981 -5.476280 -7.130530
1.693668 -5.116160 -7.233510
1.354868 -4.920270 -7.420500
1.166347 -4.566520 -7.481220
1.010863 -4.266150 -7.769430
0.835534 -3.948560 -7.767540
0.648071 -3.597750 -7.685810
0.430781 -3.224970 -7.593890
0.217118 -2.846120 -7.503630
-0.002858 -2.462420 -7.428600
-0.220620 -2.080070 -7.367770
-0.447990 -1.678940 -7.317750
-0.647620 -1.165690 -7.256310
10.966520 0.620770 0.139613
10.790010 0.511800 0.349302
10.531170 0.487223 0.647658
10.256330 0.297038 0.799713
10.001270 0.077847 0.942645
9.770090 -0.196665 1.055572
9.607870 -0.512634 1.177528
9.407970 -0.755102 1.215849
9.194360 -1.000458 1.221359
8.964870 -1.248621 1.232470
8.730240 -1.507734 1.232192
8.498400 -1.773540 1.223898
8.269840 -2.050933 1.208544
8.043700 -2.339199 1.187625
7.821460 -2.637715 1.174116
7.601560 -2.940418 1.148616
7.382240 -3.240670 1.121633
7.163270 -3.538581 1.088938
6.942210 -3.830764 1.056646
6.717280 -4.117286 1.034139
6.495010 -4.401290 1.013993
6.273440 -4.683031 0.981938
6.053700 -4.962900 0.954525
5.837570 -5.239350 0.925916
5.623560 -5.512020 0.893659
5.410920 -5.777110 0.868716
5.204180 -6.035290 0.832329
4.997360 -6.287240 0.800075
4.809970 -6.533320 0.755846
4.660820 -6.796350 0.732522
4.573160 -7.065080 0.701187
4.198521 -6.797490 0.634435
8.201670 -1.265869 1.025929
7.956460 -1.535922 1.027372
7.712780 -1.822810 1.032091
7.483330 -2.128040 1.027244
7.254730 -2.436193 1.010560
7.030000 -2.741988 1.007159
6.803310 -3.043620 0.983775
6.574050 -3.338132 0.969101
6.345020 -3.627155 0.953860
6.116890 -3.913712 0.929100
5.889730 -4.198116 0.909062
5.663020 -4.479190 0.892802
5.444420 -4.762010 0.862665
5.226380 -5.041100 0.837070
5.013060 -5.316450 0.805709
4.800690 -5.586810 0.775306
4.597320 -5.855200 0.729450
4.414670 -6.142620 0.700122
4.270630 -6.450160 0.656625
3.835440 -6.075190 0.533974
3.707101 -6.506150 0.495356
3.913050 -6.961050 0.559745
3.798559 -7.193720 0.518741
3.665850 -7.509860 0.468726
3.466701 -7.781470 0.362387
3.270061 -8.049940 0.241952
3.106924 -8.319520 0.083505
2.964897 -8.584140 -0.094236
2.886494 -8.839550 -0.309062
2.844214 -9.089660 -0.553358
2.993057 -9.207010 -0.861488
3.216266 -9.234120 -1.047740
2.907915 -9.359530 -1.019014
2.776953 -9.214740 -0.781150
2.619269 -9.054160 -0.589718
2.471117 -8.918350 -0.398795
2.319464 -8.844780 -0.284024
2.203386 -8.515300 -0.441320
2.051921 -8.092880 -0.653868
1.873975 -8.303150 -0.391750
1.684251 -8.527150 -0.219354
1.434651 -8.605500 -0.164665
1.135623 -8.634110 -0.169234
0.816003 -8.632140 -0.224940
0.492412 -8.596190 -0.342215
0.144826 -8.500350 -0.402519
-0.201812 -8.369120 -0.347741
-0.547365 -8.252540 -0.307187
-0.895583 -8.158460 -0.307591
-1.245469 -8.084880 -0.294674
-1.597986 -8.032160 -0.302440
-4.483207 0.626020 -11.493480
-4.156928 0.636050 -11.180300
-2.961201 0.495420 -10.578570
-2.815682 0.518740 -10.984550
-3.032515 0.614680 -11.317400
-3.198199 0.680410 -11.547650
-7.672297 -3.118810 -3.995370
-7.255802 -3.174100 -3.689050
-6.851572 -3.216800 -3.432710
-6.786215 -2.913240 -3.931520
-6.705133 -2.621980 -4.412370
-6.625525 -2.338780 -4.880350
-6.552574 -2.072130 -5.337640
-6.485784 -1.828050 -5.779160
-6.405022 -1.612310 -6.187580
-6.294182 -1.421880 -6.509810
-6.118825 -1.251060 -6.717820
-5.928612 -1.082410 -6.936310
-5.818831 -0.940400 -7.179260
-5.574486 -0.864520 -7.068240
-5.239629 -0.745460 -7.022250
-4.864611 -0.633660 -7.014340
-4.469157 -0.508990 -6.998590
-4.041138 -0.430040 -6.989570
-3.599059 -0.387450 -6.986100
-3.159756 -0.397490 -6.981530
-3.198518 -0.211390 -7.507930
-3.239152 -0.034630 -8.056480
-3.302163 0.131340 -8.641300
-3.447222 0.275090 -9.189770
-3.546703 0.396900 -9.697320
-3.537234 0.497560 -10.203680
-10.215241 -7.519470 0.028791
-10.324026 -6.994480 -0.540806
-9.983031 -6.722900 -0.620790
-9.759142 -6.509790 -0.650964
-9.546237 -6.249880 -0.712744
-9.335779 -5.950680 -0.808144
-9.124096 -5.634100 -0.933000
-8.877389 -5.336760 -1.060788
-8.600973 -5.041360 -1.232194
-8.274847 -4.833110 -1.373633
-7.947234 -4.722550 -1.470397
-7.608660 -4.690190 -1.493192
-7.676978 -4.290080 -1.947120
-7.753034 -3.871470 -2.514377
-7.856860 -3.444740 -3.278648
7.590030 1.973153 -1.165383
7.739290 1.574035 -0.725644
7.898770 1.134456 -0.321901
8.071160 0.686785 0.068608
8.264870 0.216259 0.420241
8.476750 -0.268732 0.730540
8.761410 -0.056355 0.687781
9.052550 0.134279 0.685884
9.425530 0.225378 0.705912
9.729370 0.497601 0.559487
10.016030 0.694680 0.408181
10.296100 0.830080 0.217380
10.589580 0.970924 0.037985
10.672040 0.753181 -0.369429
-3.111228 0.350180 -9.740210
-1.915887 -0.162690 -9.189390
-2.109010 -0.172720 -8.587870
-2.213045 -0.288120 -7.962670
-2.280278 -0.441590 -7.368540
-2.349209 -0.611000 -6.780570
-1.918027 -0.821980 -6.654720
-1.511023 -1.062590 -6.576360
-1.146320 -1.336350 -6.550990
-0.822847 -1.623030 -6.594620
-0.545243 -1.918430 -6.696850
-0.330134 -2.229670 -6.846320
-0.148272 -2.530440 -7.022970
0.011990 -2.789120 -7.197530
0.063426 -2.923600 -6.777380
0.145373 -3.111460 -6.346470
0.245771 -3.354220 -5.911600
0.378186 -3.646380 -5.504060
0.516302 -3.963390 -5.128020
0.675833 -4.292730 -4.803210
0.833707 -4.628760 -4.559660
0.882780 -4.675510 -4.942950
0.976951 -4.808050 -5.228070
1.103817 -4.972380 -5.506530
1.233883 -5.138940 -5.785880
1.359503 -5.312410 -6.044600
1.448107 -5.546170 -6.246560
1.114702 -5.745960 -6.337370
1.387019 -5.810380 -6.473170
1.628120 -5.533700 -6.546620
1.596489 -5.171300 -6.631270
1.339794 -4.937300 -6.757260
1.178316 -4.674130 -6.738440
0.890138 -4.114420 -7.203010
0.754662 -3.846730 -7.231550
0.577026 -3.532300 -7.152050
0.380851 -3.186080 -7.064490
0.174442 -2.826280 -6.987430
-0.026478 -2.458800 -6.928330
-0.234733 -2.100810 -6.873670
-0.415160 -1.734020 -6.806470
-0.534510 -1.348650 -6.650070
-0.571850 -0.988460 -6.381550
-0.680250 -0.737740 -6.841400
-0.754630 -0.438220 -7.264860
-0.810120 -0.166800 -7.676110
-0.849330 0.054270 -8.122030
-0.874900 0.227430 -8.603850
-0.881730 0.361160 -9.111410
-0.881740 0.464950 -9.630710
0.976089 -4.302170 -6.893870
1.030389 -4.447720 -6.394320
-2.812244 0.314750 -9.830320
-2.611045 0.215260 -9.619870
-2.296992 0.064910 -9.362530
-0.753610 0.883210 -9.370090
-0.549290 1.269910 -9.134380
-0.299780 1.616395 -8.935410
-0.024930 1.919458 -8.774260
0.258980 2.180361 -8.650910
0.535750 2.396508 -8.563510
0.738050 2.541007 -8.499350
0.762210 2.541530 -8.133180
0.777080 2.511567 -7.634980
0.815470 2.452334 -7.095470
0.902670 2.372090 -6.559770
1.025800 2.283229 -6.037200
1.190590 2.187196 -5.536410
1.375500 2.096654 -5.052280
1.580260 1.991450 -4.594680
1.794770 1.864721 -4.160640
2.016930 1.724563 -3.745860
2.300930 2.036172 -3.898590
2.595280 2.318039 -4.075710
2.901540 2.565153 -4.255730
3.206580 2.767259 -4.392570
3.533630 2.863074 -4.364710
3.857830 2.880949 -4.188570
4.152690 2.867386 -3.948170
4.434680 2.815164 -3.696850
4.693600 2.765844 -3.447557
4.922640 2.680817 -3.194401
5.088990 2.522574 -2.843481
5.258940 2.318828 -2.470106
5.442530 2.093644 -2.093144
5.633200 1.841969 -1.725440
5.806270 1.562076 -1.358840
5.985450 1.248764 -1.010390
6.167730 0.912745 -0.683559
6.422760 1.127420 -0.756052
6.688720 1.347123 -0.831655
6.966920 1.578052 -0.911001
7.270070 1.779690 -1.032400
-2.954171 -8.037640 -0.269840
-3.287280 -7.829250 -0.259218
-3.633633 -7.779790 -0.234869
-3.980908 -7.767350 -0.196240
-4.331800 -7.785200 -0.149172
-4.665305 -7.809220 -0.088724
-4.995734 -7.838250 -0.017704
-5.325134 -7.859030 0.066453
-5.654985 -7.860330 0.146931
-5.998610 -7.841610 0.213879
-6.351054 -7.796350 0.272162
-6.707234 -7.727120 0.327279
-7.079416 -7.645660 0.365175
-7.467027 -7.565630 0.384604
-7.859553 -7.492480 0.388016
-8.276470 -7.377880 0.344171
-8.798510 -7.159630 0.177129
-9.208950 -7.345180 0.156832
-9.558455 -7.458450 0.132122
-9.889752 -7.517900 0.097534
3.419078 -6.750770 0.390421
3.226182 -7.036980 0.285732
3.040600 -7.320200 0.163070
2.875455 -7.596640 0.012650
2.733178 -7.871170 -0.159324
2.632477 -8.150610 -0.377349
2.601779 -8.398510 -0.622032
2.640895 -8.607910 -0.885597
2.707536 -8.773890 -1.175859
3.039734 -8.727080 -1.309187
2.752463 -8.897490 -1.373303
2.484985 -8.848390 -1.200968
2.460010 -8.576140 -0.971394
2.390207 -8.458460 -0.664455
2.222837 -7.982730 -0.991910
1.987441 -7.526970 -1.277693
1.857396 -7.641370 -0.866996
1.704468 -7.917880 -0.545965
1.595634 -8.172170 -0.364915
1.396177 -8.107630 -0.360734
1.114956 -8.046990 -0.376255
0.788223 -8.001250 -0.405864
0.441976 -7.949860 -0.471196
0.118509 -7.902960 -0.685999
-0.197718 -7.730360 -0.478275
-0.553860 -7.616770 -0.452966
-0.908722 -7.519350 -0.431300
-1.257437 -7.461710 -0.430403
-1.599202 -7.410660 -0.424723
-1.933506 -7.316800 -0.442382
-2.236279 -7.067840 -0.498971
-2.481008 -6.684480 -0.614628
-2.668720 -7.063730 -0.491282
-2.857479 -7.517460 -0.357626
-7.318325 -3.513660 -3.080893
-6.889810 -3.562290 -2.899571
-6.527259 -3.586920 -2.786329
-6.477334 -3.267370 -3.204472
-6.397779 -2.951030 -3.642720
-6.316704 -2.637130 -4.088570
-6.238622 -2.331040 -4.538220
-6.168660 -2.039450 -4.989220
-6.115757 -1.782350 -5.452700
-6.090556 -1.568210 -5.889800
-6.086906 -1.428890 -6.224860
-5.881861 -1.301460 -6.281040
-5.580944 -1.079900 -6.481850
-5.132165 -0.947340 -6.422340
-4.736465 -0.816740 -6.420700
-4.334530 -0.715100 -6.437780
-3.918744 -0.632790 -6.450530
-3.495576 -0.595240 -6.469320
-3.092758 -0.598980 -6.491910
-2.770080 -0.615600 -6.534190
-2.744471 -0.465800 -6.948790
-2.726119 -0.285530 -7.461630
-2.705360 -0.111390 -8.051790
-2.965387 0.245300 -9.325860
-2.670576 0.058680 -8.773300
7.427750 1.379130 -0.609843
7.589280 0.942290 -0.213334
7.767850 0.467689 0.137227
7.971360 -0.011424 0.474096
8.202780 -0.506905 0.762971
8.453500 -1.007897 1.017463
8.708060 -0.761438 1.003501
8.957240 -0.529587 0.984996
9.203310 -0.330818 0.964954
9.405920 -0.192127 0.969743
-0.770500 0.751150 -8.845750
-0.587350 1.121680 -8.602290
-0.357800 1.462550 -8.390320
-0.103970 1.782972 -8.228020
0.185490 2.059201 -8.125740
0.475260 2.321022 -8.095950
0.458460 2.241972 -7.569390
0.486840 2.146555 -7.024340
0.585710 2.044254 -6.475010
0.714230 1.947616 -5.934120
0.883730 1.852729 -5.417820
1.082680 1.751590 -4.927690
1.304630 1.642121 -4.467260
1.527250 1.522519 -4.023790
1.756380 1.398442 -3.598070
2.007870 1.245382 -3.204410
2.251690 1.578112 -3.346420
2.521980 1.880794 -3.520740
2.787140 2.181782 -3.720740
3.038750 2.423432 -3.926240
3.223430 2.602757 -4.091120
3.424130 2.603187 -3.958490
3.676970 2.583174 -3.755140
3.960150 2.535439 -3.516756
4.240130 2.499302 -3.273774
4.522740 2.463055 -3.071971
4.753640 2.474703 -2.968129
4.832270 2.275780 -2.647741
4.987320 2.058887 -2.278479
5.176890 1.827157 -1.929563
5.365130 1.585496 -1.582639
5.546440 1.302746 -1.249444
5.735300 0.984864 -0.922027
5.935390 0.657353 -0.595200
6.152170 0.322449 -0.303829
6.345990 0.576407 -0.386224
6.580640 0.753773 -0.414951
6.847810 0.948881 -0.456615
7.129840 1.161697 -0.523267
-10.025755 -7.164480 -0.249898
-9.758015 -7.044590 -0.228872
-9.486525 -6.868160 -0.236919
-9.217456 -6.622410 -0.274231
-9.008094 -6.291570 -0.416874
-8.808934 -5.973770 -0.557419
-8.583299 -5.695310 -0.677863
-8.328434 -5.431610 -0.821289
-8.078712 -5.226330 -1.000408
-7.836489 -5.078530 -1.112526
-7.543948 -5.084630 -1.106806
-7.231178 -5.147660 -1.071693
-7.261124 -4.732910 -1.443247
-7.287030 -4.320230 -1.905453
-7.302302 -3.905600 -2.453516
-2.488849 -0.824050 -6.176380
-1.978443 -1.037250 -6.041180
-1.549583 -1.282780 -5.951850
-1.160470 -1.542280 -5.924090
-0.808774 -1.814250 -5.972080
-0.508877 -2.095150 -6.100390
-0.270152 -2.381870 -6.284560
-0.087307 -2.671460 -6.521180
-0.008793 -2.871440 -6.017650
0.108332 -3.133970 -5.530100
0.260884 -3.466530 -5.050590
0.441904 -3.860190 -4.663970
0.623688 -4.242760 -4.340250
0.792285 -4.626730 -4.100430
0.974694 -4.982880 -3.980358
0.980559 -4.882410 -4.743380
1.215646 -5.242220 -5.091070
1.355199 -5.385570 -5.382760
1.439340 -5.537400 -5.635600
1.474345 -5.727890 -5.765880
1.182454 -5.957650 -5.829730
1.483731 -5.972550 -5.905080
1.658428 -5.611980 -5.907020
1.503185 -5.237080 -6.031490
1.328541 -4.954680 -6.182110
1.206739 -4.753770 -6.286360
0.869337 -4.200680 -5.989030
0.832322 -4.081170 -6.487200
0.803598 -3.995030 -6.812350
0.688237 -3.784290 -6.733080
0.531957 -3.492810 -6.624900
0.342877 -3.161720 -6.527350
0.143950 -2.813100 -6.467200
-0.052957 -2.462660 -6.434940
-0.234234 -2.124680 -6.413830
-0.363170 -1.804600 -6.372440
-0.438860 -1.504330 -6.190480
-0.457550 -1.201160 -5.944700
-0.430640 -0.902800 -5.718570
-0.528940 -0.667220 -6.103760
-0.618130 -0.397210 -6.508660
-0.685860 -0.109770 -6.930520
-0.727370 0.166350 -7.361330
-0.752780 0.398710 -7.830740
-0.765630 0.590380 -8.330430
1.453330 -7.640830 -0.615742
1.132590 -7.495380 -0.626089
0.803263 -7.409410 -0.646693
0.460753 -7.343240 -0.690707
0.114140 -7.241640 -0.702656
-0.235254 -7.121510 -0.688252
-0.580485 -6.974080 -0.621941
-0.941949 -6.887400 -0.610937
-1.288678 -6.837910 -0.596434
-1.619436 -6.819660 -0.586983
-1.919135 -6.789840 -0.587044
-2.147975 -6.747390 -0.604253
-2.277723 -6.388660 -0.714316
-2.450184 -5.924440 -0.889778
-2.716946 -6.208770 -0.765960
-2.953038 -6.581580 -0.619241
-3.249661 -7.062020 -0.463455
7.934310 -0.759726 0.783968
7.660970 -1.024436 0.801332
7.402440 -1.310662 0.814212
7.158080 -1.624274 0.835694
6.919510 -1.942250 0.843552
6.689340 -2.256197 0.844964
6.452610 -2.557112 0.846679
6.219840 -2.855681 0.835063
5.983260 -3.148081 0.824100
5.746690 -3.434030 0.814447
5.508840 -3.718079 0.807627
5.277140 -4.005204 0.789254
5.053030 -4.291860 0.765898
4.830460 -4.579970 0.741552
4.612210 -4.865870 0.703202
4.395210 -5.145040 0.672592
4.185520 -5.431450 0.623129
3.993760 -5.732180 0.574946
-6.805908 -4.000420 -2.296788
-6.536366 -3.862140 -2.433675
-6.265972 -4.010590 -2.218233
-6.187993 -3.701540 -2.571110
-6.102066 -3.372710 -2.949875
-6.007625 -3.037100 -3.350670
-5.920638 -2.693820 -3.770510
-5.837626 -2.357100 -4.215500
-5.767160 -2.039120 -4.683360
-5.716109 -1.727280 -5.199930
-5.762560 -1.470360 -5.764070
-4.969871 -1.180380 -5.780830
-4.579455 -1.058040 -5.833180
-4.185283 -0.944530 -5.882540
-3.780388 -0.862240 -5.925080
-3.366881 -0.825060 -5.966030
-2.946334 -0.815990 -6.027860
-8.654744 -6.646130 -0.087016
-8.516414 -6.305260 -0.257472
-8.291359 -6.078220 -0.358932
-8.044078 -5.841030 -0.505994
-7.735477 -5.363860 -0.874772
-7.209524 -5.557510 -0.728380
-6.894694 -5.665740 -0.675096
-6.915189 -5.235030 -1.008815
-6.912759 -4.833140 -1.369810
-6.887529 -4.423730 -1.780758
7.294120 0.716040 -0.150232
7.466420 0.237425 0.202371
7.684870 -0.253791 0.518467
-0.605790 0.952360 -8.069610
-0.394150 1.300420 -7.837340
-0.125210 1.624469 -7.673320
0.151200 1.947630 -7.576430
2.246622 -8.044390 -1.498521
2.027857 -7.478320 -1.738462
1.813716 -7.014200 -1.976005
1.766413 -7.035490 -1.527112
1.558002 -7.111860 -1.064268
0.676845 -3.817290 -6.263620
0.503898 -3.506230 -6.085990
0.312922 -3.157220 -5.971100
0.116346 -2.792120 -5.931230
-0.083704 -2.439030 -5.939290
-0.223610 -2.104170 -5.999480
-0.318990 -1.864600 -6.063480
-0.344600 -1.682720 -5.832930
-0.348590 -1.421890 -5.541090
-0.307300 -1.084890 -5.269740
-0.270250 -0.666640 -5.192820
-0.381080 -0.650590 -5.563810
-0.438090 -0.390130 -5.816860
-0.504190 -0.098260 -6.207070
-0.540550 0.202900 -6.616150
-0.580700 0.491550 -7.058880
-0.602210 0.746820 -7.548670
7.391400 -0.512406 0.539585
7.100700 -0.793310 0.564351
6.836390 -1.137411 0.603296
6.600020 -1.467286 0.633080
6.357930 -1.782727 0.654146
6.116090 -2.087536 0.671588
5.874460 -2.387684 0.671343
5.629690 -2.680145 0.667036
5.380820 -2.964598 0.668693
5.137490 -3.250485 0.656472
4.894610 -3.538305 0.652807
4.665880 -3.832880 0.626660
4.444090 -4.128320 0.594926
4.215810 -4.417640 0.572859
3.993860 -4.708500 0.525620
3.773630 -5.003220 0.475385
3.575160 -5.309040 0.404994
3.383240 -5.628110 0.346691
3.196989 -5.973750 0.287152
2.990690 -6.274890 0.170840
2.803613 -6.575170 0.043361
2.640197 -6.868200 -0.104413
2.502377 -7.155900 -0.271277
2.395717 -7.436110 -0.463378
2.339447 -7.708660 -0.686931
2.380670 -7.942570 -0.959397
2.470703 -8.158850 -1.251670
2.446001 -8.371230 -1.513050
2.872649 -8.251140 -1.639692
2.588045 -8.430540 -1.731422
2.225069 -8.465810 -1.678268
-3.704427 -7.094640 -0.419172
-4.081195 -7.121890 -0.364256
-4.428287 -7.146290 -0.313167
-4.774975 -7.185530 -0.252837
-5.101306 -7.237700 -0.174489
-5.423033 -7.280690 -0.089926
-5.748979 -7.300730 -0.020191
-6.078914 -7.285500 0.046567
-6.424571 -7.233290 0.102925
-6.785637 -7.157400 0.135094
-7.158162 -7.065330 0.149471
-7.551865 -6.990280 0.147233
-7.935845 -6.967880 0.153940
-8.293450 -6.885950 0.125466
3.231850 2.348207 -3.660230
3.484640 2.273544 -3.393460
3.758500 2.195326 -3.118616
4.069740 2.118558 -2.855326
4.445040 2.060994 -2.551999
1.153894 -6.926520 -0.965590
0.799998 -6.825370 -0.922875
0.459417 -6.741250 -0.899043
0.109619 -6.642510 -0.891782
-0.239885 -6.500600 -0.868865
-0.593152 -6.360620 -0.857697
-0.978985 -6.226600 -0.854911
-1.353975 -6.221490 -0.811163
-1.693309 -6.239670 -0.787331
-2.007076 -6.285650 -0.760792
-2.297571 -5.205870 -1.233281
-2.658243 -5.365000 -1.139431
-2.936948 -5.699780 -0.979212
-3.199055 -6.031490 -0.825490
-3.499199 -6.286460 -0.697899
-3.850547 -6.419080 -0.643395
-4.200577 -6.477900 -0.580094
-4.556044 -6.519430 -0.529463
-4.900305 -6.571620 -0.475139
-5.223520 -6.657530 -0.386818
-5.530708 -6.729350 -0.287554
-5.839776 -6.771380 -0.213948
-6.155983 -6.762700 -0.153173
-6.491028 -6.707190 -0.116215
-6.837765 -6.617150 -0.110672
-7.216367 -6.496610 -0.127909
-7.678349 -6.322560 -0.185802
-8.045975 -6.487850 -0.099646
-8.284509 -6.562800 -0.071439
-6.409346 -4.289660 -1.928017
-6.053211 -4.540430 -1.666289
-5.933407 -4.208860 -1.975091
-5.833563 -3.870270 -2.317655
-5.727282 -3.518620 -2.667543
-5.618886 -3.156730 -3.035971
-5.520020 -2.800560 -3.448600
-5.431109 -2.438350 -3.879450
-5.338190 -2.076270 -4.356960
-5.205255 -1.673840 -4.946270
-5.377398 -1.329540 -5.734460
4.697780 1.768591 -2.097929
4.925820 1.550411 -1.746837
5.128320 1.337168 -1.456759
5.290690 1.059016 -1.148334
5.473700 0.738267 -0.830140
5.691070 0.396532 -0.513285
5.939000 0.039481 -0.219455
6.206300 -0.310762 0.057197
6.395520 0.010981 -0.033311
6.487650 0.307047 -0.174619
6.714610 0.353864 -0.103074
7.000320 0.510907 -0.114384
0.183650 1.810793 -7.005420
0.260190 1.676878 -6.399410
0.432780 1.572523 -5.823250
0.607870 1.483778 -5.292880
0.826160 1.385464 -4.796190
1.046810 1.289086 -4.321640
1.279240 1.175987 -3.882810
1.526670 1.051731 -3.470460
1.779940 0.909933 -3.079340
2.037940 0.735391 -2.701670
2.267750 1.069595 -2.821420
2.504280 1.417486 -2.967960
2.768690 1.734356 -3.175130
3.008480 2.058650 -3.394280
-7.559707 -5.818350 -0.524109
-6.869461 -6.116200 -0.378417
-6.537057 -6.216780 -0.363072
-6.582457 -5.773830 -0.643006
-6.606912 -5.365330 -0.941700
-6.585068 -4.986640 -1.255327
-6.513058 -4.633720 -1.580597
-4.777010 -1.461390 -5.138720
-4.396223 -1.309180 -5.252590
-4.018550 -1.194960 -5.340160
-3.634260 -1.116170 -5.415240
-3.242680 -1.071840 -5.481530
-2.854155 -1.080830 -5.526750
-2.434233 -1.137700 -5.529760
-2.012362 -1.310020 -5.438960
-1.582237 -1.532280 -5.332580
-1.168916 -1.812480 -5.259480
-0.776377 -2.068660 -5.348120
-0.448112 -2.330780 -5.504230
-0.188265 -2.605310 -5.729080
7.158060 0.007508 0.232841
6.776760 -0.221613 0.218354
6.038950 -1.335886 0.429292
5.789360 -1.640112 0.459825
5.540490 -1.936536 0.476151
5.288410 -2.226895 0.474044
5.028050 -2.505803 0.486866
4.773780 -2.789996 0.475046
4.523800 -3.080721 0.474897
4.287860 -3.382040 0.447198
4.064540 -3.682200 0.418064
3.833450 -3.978820 0.390941
3.597060 -4.270080 0.350270
3.381580 -4.573480 0.266295
3.160650 -4.873280 0.199466
2.953000 -5.185590 0.121005
2.759295 -5.505500 0.016624
2.570693 -5.819300 -0.108322
2.405270 -6.127100 -0.263103
2.266816 -6.427610 -0.428956
2.163121 -6.719290 -0.610719
2.095492 -7.005160 -0.807699
2.080403 -7.276210 -1.031836
2.165025 -7.494110 -1.288282
2.301685 -7.698310 -1.568983
2.361890 -7.900510 -1.845848
2.665756 -7.894110 -2.058986
2.388417 -8.083200 -2.161104
2.039290 -8.107670 -2.163624
2.153165 -7.791480 -2.177926
2.052587 -7.330640 -2.290545
1.852272 -6.939030 -2.480151
1.664785 -6.541410 -2.684900
1.617112 -6.584890 -2.243022
1.561066 -6.563860 -1.850049
1.385245 -6.484340 -1.537854
1.086291 -6.361150 -1.368596
0.767922 -6.265730 -1.259129
0.442937 -6.188800 -1.186775
0.114190 -6.094600 -1.141252
-0.212710 -5.940500 -1.135106
-0.570972 -5.740030 -1.135381
-1.036792 -5.465670 -1.214431
-1.460155 -5.597260 -1.076801
-1.814405 -5.676970 -1.029328
-2.148481 -5.758870 -0.973684
-0.398170 1.093100 -7.292170
-0.129300 1.448811 -7.069030
0.688513 -3.890250 -5.713610
0.500677 -3.546380 -5.503400
0.296027 -3.157290 -5.367540
0.072603 -2.740730 -5.376000
-0.091250 -2.335900 -5.445850
-0.238200 -1.969570 -5.595080
-0.219530 -1.743660 -5.166590
-0.131560 -1.391010 -4.659380
-0.089870 -0.778340 -4.663320
-0.041640 -0.262080 -4.777680
-0.264840 -0.160300 -5.400290
-0.359090 0.156830 -5.923030
-0.373420 0.479350 -6.305130
-0.372570 0.820120 -6.746840
-0.075745 -2.891510 -5.164930
0.097718 -3.300710 -4.519580
0.368905 -3.810110 -4.153410
0.579221 -4.238630 -3.832430
0.788891 -4.679530 -3.571265
0.979653 -5.087450 -3.481213
1.160844 -5.426500 -3.463576
1.136451 -5.311240 -3.952311
1.131724 -5.204290 -4.443450
1.471403 -5.662460 -5.038010
1.516017 -5.694450 -5.317840
1.430365 -5.949080 -5.326280
1.258173 -6.170150 -5.294100
1.568975 -6.201350 -5.298260
1.751206 -5.738070 -5.147940
1.454713 -5.257390 -5.424170
1.254685 -4.925990 -5.644960
-6.175014 -4.865540 -1.382308
-5.860391 -5.161520 -1.149539
-5.696271 -4.841530 -1.413883
-5.579847 -4.463920 -1.749880
-5.486372 -4.079150 -2.065199
-5.358098 -3.715340 -2.384382
-5.230999 -3.346980 -2.725028
-5.113059 -2.974890 -3.124550
-5.021590 -2.587430 -3.546210
-4.929524 -2.229570 -3.974930
-4.793460 -1.933270 -4.363960
-4.509377 -1.737510 -4.559500
-4.181372 -1.588420 -4.706480
-3.834250 -1.474230 -4.827220
-3.479382 -1.383410 -4.925890
-3.123542 -1.336450 -5.017360
-2.794009 -1.331510 -5.077260
-2.439351 -1.411830 -5.013400
-2.063553 -1.580400 -4.890500
-1.669979 -1.836290 -4.728680
-1.188200 -2.197120 -4.470060
-0.715253 -2.392740 -4.712750
-0.355618 -2.627120 -4.925870
3.260560 1.943320 -3.090403
3.537770 1.835610 -2.781240
3.834960 1.719978 -2.476633
4.153960 1.574537 -2.164381
4.453170 1.388197 -1.822610
4.732010 1.220372 -1.526223
4.956500 1.136073 -1.354324
5.036950 0.845960 -1.088301
5.212600 0.500083 -0.768316
5.434640 0.137253 -0.449772
5.695330 -0.235013 -0.148912
5.978500 -0.615382 0.136648
6.279190 -1.020343 0.395565
6.522060 -0.674990 0.326298
-1.945244 -5.126840 -1.291185
-2.050193 -4.597400 -1.606430
-2.438304 -4.616330 -1.566094
-2.931529 -4.700020 -1.513341
-3.194955 -5.206000 -1.220638
-3.405465 -5.532560 -1.036832
-3.680532 -5.702390 -0.940472
-4.004150 -5.796300 -0.883297
-4.343318 -5.865470 -0.838871
-4.691855 -5.913710 -0.797280
-5.052743 -5.961970 -0.745473
-5.378377 -6.103930 -0.625020
-5.656450 -6.225970 -0.518490
-5.936762 -6.287040 -0.423713
-6.223124 -6.281210 -0.377750
5.728000 -0.914555 0.183394
5.479400 -1.212979 0.216704
5.224560 -1.506763 0.239962
4.957240 -1.785682 0.263465
4.694840 -2.066469 0.252170
4.422070 -2.338510 0.259867
4.169080 -2.632890 0.243468
3.923550 -2.936780 0.229202
3.691570 -3.246030 0.215440
3.466400 -3.549310 0.167650
3.227160 -3.846370 0.110543
2.993270 -4.138630 0.029344
2.769240 -4.441020 -0.065693
2.549770 -4.748850 -0.170673
2.350406 -5.065760 -0.299487
2.177465 -5.383310 -0.452811
2.033136 -5.696070 -0.628649
1.922292 -6.002300 -0.814858
1.854041 -6.303930 -1.003553
1.831720 -6.596960 -1.200921
1.860680 -6.864950 -1.416811
1.990671 -7.076760 -1.662985
2.135091 -7.272480 -1.923805
2.275561 -7.430750 -2.190519
2.391479 -7.545790 -2.443681
2.210184 -7.768680 -2.596717
1.911184 -7.823260 -2.653079
2.100738 -7.551020 -2.647629
2.039518 -7.182470 -2.771141
1.876803 -6.836870 -2.982337
1.672097 -6.461120 -3.156574
1.499825 -6.091840 -3.328575
1.487077 -6.163820 -2.864274
1.467894 -6.208190 -2.478236
1.396172 -6.130610 -2.198446
1.241052 -5.995210 -1.970778
0.990143 -5.848780 -1.792103
0.707468 -5.746600 -1.642150
0.407186 -5.686910 -1.511222
0.129369 -5.629850 -1.429893
-0.149119 -5.459330 -1.441006
-0.466227 -5.235060 -1.475954
-0.803345 -4.918000 -1.572585
-1.632271 -5.061290 -1.361510
-1.357115 -4.841640 -1.551995
-1.114213 -4.513390 -1.818446
0.176850 1.147756 -5.691310
0.389220 1.072963 -5.144470
0.597440 0.998572 -4.643510
0.844230 0.896112 -4.185900
1.091120 0.797602 -3.751070
1.343250 0.688566 -3.352080
1.590270 0.571351 -2.975660
1.833570 0.408074 -2.617330
2.054150 0.190427 -2.240644
2.296540 0.522799 -2.316852
2.528470 0.884526 -2.432579
2.769190 1.251112 -2.605912
3.022350 1.597595 -2.828435
-7.212328 -5.996980 -0.424151
-6.290466 -5.857020 -0.630382
-6.326304 -5.499250 -0.873827
-6.272914 -5.180120 -1.099809
0.714640 -4.004930 -5.075380
-0.080810 -2.180640 -4.928900
0.005240 -1.990760 -4.382670
0.139380 -0.834050 -4.090040
0.194680 -0.342190 -4.234720
0.290290 0.126510 -4.365700
0.083820 0.210880 -4.868390
-0.107840 0.299780 -5.354100
-0.221960 0.385640 -5.742870
-0.181530 0.688070 -5.954260
-0.065150 1.176650 -6.362350
5.436190 -0.512106 -0.091518
5.180690 -0.800746 -0.043951
4.924010 -1.091873 -0.012166
4.653900 -1.371055 0.010915
4.370440 -1.627238 0.017743
4.089400 -1.894638 0.001650
3.818230 -2.186851 -0.010990
3.562190 -2.500890 -0.019397
3.348890 -2.834220 -0.041945
3.114350 -3.134700 -0.083428
2.872600 -3.423260 -0.153379
2.633170 -3.714710 -0.259433
2.393690 -4.013120 -0.371679
2.169970 -4.321890 -0.510559
1.969460 -4.639510 -0.670573
1.808658 -4.967010 -0.850661
1.689008 -5.287160 -1.052452
1.607641 -5.601750 -1.262431
1.583249 -5.913130 -1.449674
1.606903 -6.213750 -1.630544
1.689395 -6.480800 -1.831039
1.831546 -6.698630 -2.058656
1.978357 -6.886950 -2.314090
2.119972 -7.026420 -2.581652
2.200556 -7.194350 -2.851337
2.119727 -7.444010 -3.037587
1.816143 -7.557730 -3.055794
2.031539 -7.397730 -2.961885
1.944989 -7.171640 -3.193209
1.813819 -6.845810 -3.487861
1.696929 -6.378180 -3.650905
1.505795 -6.015360 -3.829511
1.318013 -5.652070 -3.950237
1.125461 -5.585680 -2.416877
0.889937 -5.368580 -2.261740
0.615832 -5.261300 -2.045217
0.341025 -5.236360 -1.843113
0.140872 -5.304410 -1.673388
-0.058716 -5.070250 -1.760879
-0.342013 -4.841530 -1.823046
-0.633898 -4.563610 -1.931466
-0.890020 -4.198190 -2.120722
-1.137034 -3.806660 -2.382838
-1.379095 -4.090190 -2.090291
-1.621003 -4.404000 -1.826663
-1.768791 -4.681940 -1.591250
3.298470 1.459011 -2.493934
3.604460 1.300302 -2.174554
3.922710 1.127650 -1.853029
4.252020 0.944957 -1.522615
4.651290 0.727573 -1.156841
4.905050 0.278652 -0.729868
5.167070 -0.123067 -0.397936
1.471567 -6.052190 -4.885230
1.295743 -6.354390 -4.756464
1.624607 -6.436990 -4.677755
1.913914 -6.174910 -4.508129
1.348221 -5.206610 -4.824530
1.152486 -4.845750 -5.056870
0.951847 -4.414900 -5.318010
1.103397 -4.635600 -5.920870
1.549697 -5.625630 -4.567611
1.708313 -6.028010 -4.133998
-6.012068 -5.431720 -0.962934
-5.815731 -5.774100 -0.736119
-5.580320 -5.581960 -0.903542
-5.165932 -4.295800 -1.851549
-5.017126 -3.975220 -2.108391
-4.829281 -3.609360 -2.406852
-4.701639 -3.185870 -2.809667
-4.617019 -2.755480 -3.229840
-4.552395 -2.382080 -3.663410
-4.541141 -2.111920 -4.032120
-4.274567 -2.015050 -4.072130
-3.964210 -1.881490 -4.207600
-3.641358 -1.759230 -4.342650
-3.302469 -1.673550 -4.467990
-2.980718 -1.602590 -4.597500
-2.756659 -1.528470 -4.749500
-2.511231 -1.667290 -4.588860
-2.182071 -1.844320 -4.432610
-1.845818 -2.080870 -4.201270
-1.524494 -2.413030 -3.873150
-0.591807 -2.781150 -4.130700
-0.245594 -2.976340 -4.336520
-0.959567 -2.709110 -3.846490
-1.284832 -2.812860 -3.449120
0.023120 0.708100 -5.495240
0.208810 0.651020 -4.993180
0.436580 0.566720 -4.503860
0.670260 0.487850 -4.037520
0.929240 0.401128 -3.613660
1.172420 0.329993 -3.217110
1.434120 0.234873 -2.873840
1.645430 0.124588 -2.559520
1.824460 -0.108886 -2.238800
2.013130 -0.401705 -1.882803
2.308430 -0.089702 -1.869654
2.554400 0.281567 -1.910108
2.814830 0.665925 -2.061019
3.055580 1.067362 -2.251632
-6.035681 -5.890850 -0.649557
-2.007179 -4.011190 -2.048616
-2.499522 -4.029890 -1.985625
-2.944221 -4.001830 -1.974059
-3.507981 -4.857670 -1.410287
-3.579988 -5.195670 -1.210343
-3.821808 -5.199310 -1.196439
-4.129102 -5.236660 -1.177676
-4.462326 -5.290390 -1.145102
-4.819834 -5.321710 -1.110062
-5.271665 -5.274780 -1.125996
-3.429872 -4.380800 -1.723346
-3.395105 -3.840700 -2.106377
0.517385 -3.625720 -4.871880
0.278723 -3.164990 -4.620230
0.083758 -2.641710 -4.778670
1.629016 -6.890010 -4.056727
1.984726 -6.616970 -3.938755
1.630014 -5.932790 -3.744237
1.462718 -5.585400 -4.043721
1.280298 -5.209600 -4.253522
1.103204 -4.851890 -4.401420
0.922559 -4.482820 -4.480810
0.740646 -4.114030 -4.397820
0.554964 -3.770350 -4.235380
0.436832 -3.426830 -4.038800
0.132600 -2.482190 -4.206690
0.265155 -2.899370 -4.036070
0.375366 -3.173730 -3.824220
4.901690 -0.405022 -0.330656
4.647680 -0.702346 -0.287744
4.380940 -0.972259 -0.253390
4.101440 -1.202291 -0.262575
3.783450 -1.447414 -0.284240
3.471830 -1.740398 -0.300060
3.212120 -2.099210 -0.323138
3.028670 -2.455670 -0.296748
2.795590 -2.730130 -0.356496
2.540390 -3.001890 -0.438465
2.282610 -3.287640 -0.558965
2.038880 -3.588300 -0.708940
1.811530 -3.897530 -0.888520
1.611500 -4.224560 -1.089016
1.471932 -4.568890 -1.297829
1.376616 -4.904170 -1.529148
1.328924 -5.224530 -1.774529
1.354452 -5.558480 -1.951147
1.425140 -5.874460 -2.101494
1.552717 -6.139080 -2.264149
1.692252 -6.358940 -2.459006
1.819562 -6.534350 -2.704864
1.948892 -6.660740 -2.987633
2.045206 -6.809180 -3.257339
1.996548 -7.065720 -3.444992
-3.754362 -2.211600 -3.742380
-3.441363 -2.082080 -3.905980
-3.107752 -1.978180 -4.036100
-2.713875 -1.885750 -4.184200
-2.325195 -2.054480 -4.040390
-2.048452 -2.300120 -3.789090
-1.799987 -2.616820 -3.451880
-1.578170 -2.998410 -3.079100
-0.790469 -3.126500 -3.379150
-0.477408 -3.169800 -3.622200
-0.184651 -3.302670 -3.801570
0.076661 -3.533030 -3.863540
0.288351 -3.879970 -3.652930
0.492613 -4.293120 -3.323126
0.760824 -4.835660 -2.888720
1.200066 -5.582470 -2.986620
1.359944 -5.947800 -2.673849
1.325592 -5.745980 -3.440205
-1.652430 -3.666420 -2.396135
-2.595221 -3.462860 -2.414299
-2.988587 -3.467040 -2.409692
-3.383114 -3.361470 -2.496844
-3.770707 -3.173670 -2.695314
-3.829086 -3.649250 -2.282602
-3.856378 -4.725320 -1.497603
-4.229512 -4.683440 -1.519243
-4.571263 -4.766000 -1.467463
-4.878657 -4.812030 -1.438273
-5.218917 -4.691990 -1.533772
-4.923406 -4.462950 -1.692125
-4.270364 -3.429690 -2.501235
-2.373798 -2.944180 -2.951450
-3.363343 -2.989580 -2.872190
-3.686930 -2.780800 -3.088550
-4.096426 -2.449880 -3.492480
-4.188883 -2.944970 -2.970690
-3.517218 -2.524570 -3.367780
-3.259535 -2.390080 -3.501480
-2.962146 -2.308430 -3.610740
-2.659184 -2.249110 -3.703120
-2.405637 -2.259550 -3.743040
-2.245388 -2.481850 -3.487230
-2.066443 -2.815960 -3.155540
0.543870 0.052090 -3.889170
0.799820 -0.007150 -3.447030
1.084420 -0.052350 -3.061460
1.534040 -0.100254 -2.545470
1.713140 -0.658460 -1.995036
1.896620 -1.030160 -1.642268
2.238840 -0.752441 -1.503581
2.551730 -0.409820 -1.457228
2.867310 -0.017534 -1.515114
3.124480 0.450113 -1.692170
3.367400 0.873245 -1.919400
-3.334110 -2.734780 -3.125140
-3.109795 -2.701260 -3.161870
-2.817972 -2.650920 -3.217080
-2.521232 -2.578150 -3.332460
-2.700454 -3.027900 -2.831220
-3.039497 -3.040500 -2.805100
3.689990 0.704241 -1.592707
4.023350 0.525683 -1.291712
4.347140 0.298718 -0.973824
4.633410 -0.034415 -0.648945
4.390400 -0.348693 -0.568059
3.875450 -0.766095 -0.552727
2.776330 -2.162390 -0.540502
2.532040 -2.337440 -0.632339
2.259870 -2.583120 -0.761107
1.973330 -2.858440 -0.899972
1.715000 -3.165220 -1.075313
1.481820 -3.475270 -1.291274
1.280710 -3.813120 -1.559328
1.168156 -4.198660 -1.788399
1.110150 -4.549610 -2.042732
1.077102 -4.846220 -2.407412
1.180364 -5.258610 -2.523318
1.315097 -5.595630 -2.617352
1.452717 -5.862090 -2.711243
1.570408 -6.076100 -2.835853
1.667412 -6.199920 -3.069184
1.772205 -6.294070 -3.370070
1.919231 -6.394030 -3.683859
1.727615 -7.313910 -3.501895
1.336882 -6.407680 -4.138074
1.557548 -6.017970 -4.373484
1.332324 -5.567160 -4.580730
1.031676 -5.261810 -2.932803
0.132086 -4.747090 -2.160785
-0.222907 -4.502090 -2.175062
-0.387168 -4.098060 -2.487141
-0.688270 -3.982730 -2.432740
-0.891056 -3.620050 -2.708780
-1.082278 -3.221640 -3.053180
-1.360302 -3.408680 -2.713950
1.543469 -5.894750 -3.381069
1.409106 -5.589230 -3.581863
1.257576 -5.266600 -3.689859
1.095670 -4.926870 -3.758355
0.933957 -4.580750 -3.777270
0.760391 -4.241400 -3.746613
0.635783 -3.901040 -3.628314
0.536754 -3.551020 -3.482140
0.467749 -3.196150 -3.405830
0.362130 -2.812000 -3.510120
0.257220 -2.374240 -3.657890
1.495985 -5.873810 -3.126597
1.396865 -5.668800 -3.142304
1.267212 -5.385140 -3.149237
1.113175 -5.065760 -3.140125
0.956391 -4.714880 -3.123744
0.838354 -4.366540 -3.150641
0.746900 -4.045950 -3.046054
0.688004 -3.676310 -2.913107
0.631370 -3.251500 -2.855102
0.534350 -2.790350 -2.979030
0.453380 -2.341320 -3.129820
0.404000 -0.877440 -3.544680
0.449270 -0.395610 -3.721600
0.392020 -1.373020 -3.384090
0.403100 -1.864640 -3.250080
-0.640769 -3.510350 -2.994900
-0.377076 -3.514760 -3.212910
-0.136693 -3.591460 -3.379240
0.041101 -3.680720 -3.507870
0.161026 -3.933660 -3.274490
0.316250 -4.302600 -2.924864
0.474034 -4.758450 -2.480013
-3.866393 -4.180640 -1.862192
-4.380676 -4.029110 -2.012370
-4.727532 -4.310890 -1.810047
0.734330 -0.446010 -3.253050
1.040560 -0.458960 -2.842470
1.337680 -0.430430 -2.526780
1.397260 -0.819850 -2.221573
1.535110 -1.261830 -1.862948
1.758430 -1.705030 -1.457083
2.119180 -1.448610 -1.274743
2.489180 -1.184836 -1.119835
2.848450 -0.820580 -1.056440
3.273410 -0.364764 -1.059511
3.478840 0.235154 -1.361442
3.835640 0.110779 -1.084153
4.009860 -0.324193 -0.727077
-0.036123 -3.902520 -3.039149
0.069384 -4.265050 -2.663689
-0.193252 -4.171390 -2.543538
-0.269110 -3.849810 -2.864530
0.675470 -2.327210 -2.661894
0.668120 -1.901230 -2.735770
0.683950 -1.410270 -2.823840
0.703700 -0.902500 -3.033850
1.049320 -0.914280 -2.566940
1.420830 -1.989510 -1.683160
1.697300 -2.430910 -1.272814
2.007180 -2.146770 -1.091727
2.350220 -1.904530 -0.922533
2.779840 -1.708920 -0.698094
3.141150 -1.300430 -0.651979
3.511540 -0.964721 -0.625862
3.758270 -0.330110 -0.857714
1.436250 -2.745710 -1.460882
1.180620 -3.048480 -1.707094
0.903927 -3.870420 -2.326428
0.910633 -4.235420 -2.513855
0.933311 -4.484290 -2.690447
1.099870 -1.508890 -2.211112
0.922300 -3.345520 -2.154542
1.186410 -2.349440 -1.855608
0.984370 -2.630070 -2.062235
0.765060 -2.762780 -2.463104
0.942030 -2.020760 -2.262866
0.864180 -2.328620 -2.326295
9.790820 7.806624 -5.635696
9.024570 4.434181 -7.563829
8.828780 4.599244 -7.874599
-6.190383 0.088060 -14.759290
-6.627709 -0.224830 -14.708000
3.361020 3.670972 -12.082310
3.454790 3.733271 -11.696480
8.496650 3.855138 -4.930852
8.756830 3.720785 -4.755036
11.724030 5.456113 0.403109
12.094620 5.210733 0.206473
4.848180 -7.262420 0.729319
-4.753476 0.513680 -11.265930
-4.796939 0.585430 -11.762230
-3.506093 0.668410 -11.236930
-3.182704 0.601160 -11.044910
-3.791500 0.611290 -10.864290
-3.377513 0.563240 -10.664090
-10.283036 -7.208560 -0.294046
-10.176744 -6.892120 -0.585357
0.975904 -4.930550 -4.418720
1.076294 -5.038400 -4.877200
-7.857196 -5.558120 -0.712731
-7.505831 -5.459930 -0.801428
-6.122144 -5.601600 -0.818642
1.343728 -5.852220 -2.994221
1.271688 -5.801990 -2.560302
-1.874033 -3.212980 -2.777430
-2.206881 -3.400730 -2.526268
1.334370 -0.086450 -2.749790
1.595720 -0.331690 -2.314216
-0.496756 -3.849590 -2.693638
-0.482026 -4.288380 -2.236727
0.175560 -1.895050 -3.802670
0.122250 -1.367640 -3.964900
4.166510 -0.610264 -0.513457
4.140760 -0.057394 -0.834460
-0.555997 -0.981450 -14.236240
0.284408 -3.253980 -7.467680
0.191399 -3.123850 -7.068410
0.170476 -3.026860 -7.687740
14.255056 9.203581 1.396317
14.013436 9.454617 1.198393
13.763097 9.687261 1.038483
13.503707 9.906405 0.825695
13.231910 10.111644 0.652799
12.957630 10.302944 0.431952
12.667275 10.484791 0.251560
12.379765 10.652031 0.028027
12.072816 10.814014 -0.155741
11.773086 10.960324 -0.377904
11.451021 11.105306 -0.561916
11.139581 11.233206 -0.779288
10.822381 11.352696 -0.993087
10.480470 11.475063 -1.170286
10.151790 11.579053 -1.374627
9.796537 11.689410 -1.545227
9.456288 11.779350 -1.736912
9.088265 11.879052 -1.898107
8.736327 11.956112 -2.073609
8.378511 12.027082 -2.239526
7.992459 12.111339 -2.377411
7.622995 12.170739 -2.520802
7.225734 12.246662 -2.639732
6.845157 12.295182 -2.755471
6.438245 12.363470 -2.850382
6.047887 12.401720 -2.932468
5.653577 12.435000 -2.995624
5.236405 12.491130 -3.041499
4.837052 12.514360 -3.065084
4.418372 12.562480 -3.080364
4.018046 12.574860 -3.067318
3.601312 12.613984 -3.054708
3.203205 12.615124 -3.008890
2.790890 12.644687 -2.971362
2.397212 12.634437 -2.897156
2.006295 12.618477 -2.810403
1.602936 12.632366 -2.739709
1.218185 12.604986 -2.631000
0.821800 12.608588 -2.543642
0.443611 12.569798 -2.416867
0.054156 12.562787 -2.315360
-0.317463 12.512547 -2.174007
-0.700321 12.494487 -2.060429
-1.065593 12.432637 -1.907598
-1.427822 12.364897 -1.750094
-1.801673 12.329293 -1.622210
-2.158133 12.249493 -1.457360
-2.526758 12.201477 -1.321944
-2.877882 12.109167 -1.152244
-3.226500 12.010377 -0.981032
-3.588135 11.942394 -0.838418
-3.932037 11.830094 -0.665999
-4.289873 11.747370 -0.519533
-4.629382 11.620710 -0.348369
-4.983934 11.522001 -0.199431
-5.319274 11.379941 -0.032183
-5.652559 11.229741 0.132035
-6.002113 11.105173 0.278068
-6.331202 10.937753 0.433865
-6.677817 10.793480 0.577180
-7.002347 10.607491 0.721013
-7.345683 10.441898 0.859062
-7.664857 10.236040 0.986912
-8.004146 10.047525 1.116338
-8.328791 9.833835 1.231490
10.503990 6.940863 -5.575169
10.521990 6.685198 -5.321256
10.462800 6.514879 -5.745503
10.493280 6.429331 -6.181855
10.531310 6.347926 -6.652727
10.551440 6.325980 -7.161230
10.566840 6.386410 -7.681240
10.527580 6.529560 -8.203421
10.425040 6.719990 -8.694816
10.152000 6.632730 -8.922568
9.883690 6.605470 -9.205432
9.575710 6.594640 -9.469711
9.262870 6.382790 -9.631030
8.919840 6.139800 -9.473755
8.716950 5.814340 -9.321460
8.687150 5.403070 -9.268830
8.834710 4.989470 -9.267850
9.079620 4.496650 -9.131830
8.966620 4.099580 -9.329840
8.794916 3.919440 -9.708460
8.646513 3.780230 -10.152380
8.617857 3.849270 -10.705370
8.322197 3.738760 -10.905770
8.013956 3.587670 -11.037900
7.650852 3.343480 -10.979500
7.595275 3.347950 -11.370690
7.729287 3.540880 -11.750350
7.571671 3.492080 -12.090430
7.332173 3.355040 -12.332590
7.031395 3.114460 -12.299290
6.773074 3.170870 -12.075140
6.650809 3.135330 -11.682330
6.299576 3.274550 -11.512940
5.907684 3.525930 -11.482570
5.595677 3.839250 -11.424570
5.419135 4.268600 -11.323160
5.231283 4.477080 -11.005510
4.885147 4.536510 -10.921760
4.515816 4.657460 -11.239770
4.169488 4.652580 -11.644430
3.909747 4.505110 -12.093490
3.741314 4.256490 -12.537250
3.512207 3.956650 -12.897850
3.186568 3.737530 -13.162280
2.812887 3.608760 -13.376150
2.436992 3.466160 -13.562140
2.093632 3.318800 -13.761480
1.724768 3.208960 -13.960280
1.364811 3.054860 -14.179360
1.001066 2.922570 -14.364150
0.725213 2.654430 -14.426880
0.384948 2.485880 -14.365260
0.115760 2.160350 -14.184430
-0.125620 1.791660 -13.965210
-0.361558 1.419910 -13.703690
-0.585808 1.066700 -13.423080
-0.937388 0.802980 -13.207590
-1.460219 0.898300 -13.167840
-1.899595 0.703300 -13.130070
-2.290511 0.789010 -13.242450
-2.688598 0.896640 -13.398180
-3.085445 1.033670 -13.502320
-3.521937 1.080300 -13.472230
-3.911871 1.065450 -13.279750
-4.306244 0.992920 -13.008200
-4.604250 0.905950 -12.705550
-4.848576 1.059460 -12.346290
-4.992472 1.130770 -11.929000
-5.102007 1.537340 -11.728400
-5.124240 1.845070 -11.475030
-5.112825 2.151680 -11.269210
-5.272453 2.295330 -10.808020
-5.218467 2.668240 -10.484580
-5.195123 2.854690 -10.199860
-5.201753 3.122280 -10.014180
-5.241889 3.422450 -9.768870
-5.417031 3.562840 -9.510810
-5.577858 3.843350 -9.357510
-5.847388 4.108200 -9.365290
-6.050235 4.383820 -9.693060
-6.187284 4.594850 -10.198970
-6.464909 4.539720 -10.587530
-6.855164 4.627890 -10.665180
-7.044928 4.761290 -10.441165
-7.233023 4.924215 -10.112154
-7.346731 5.093391 -9.699930
-7.292112 5.475424 -9.425270
-7.192270 5.767262 -9.075203
-7.030828 6.047044 -8.725858
-6.740952 6.327212 -8.480478
-6.249040 5.932848 -8.540745
-5.942688 5.844099 -8.420435
-5.905787 6.180315 -8.518351
-6.333560 6.158331 -8.370056
-6.571908 5.752867 -8.235575
-6.406125 5.809534 -7.931718
-6.225353 6.306220 -8.052062
-5.824233 6.450639 -8.299768
-5.809119 5.951383 -7.999400
-6.118078 6.236654 -7.848890
-6.554572 6.054674 -8.164901
-6.749127 5.775360 -8.525679
-6.935753 5.511236 -8.844565
-7.034474 5.257680 -9.175030
-6.998069 5.026740 -9.524360
-6.884063 4.862990 -9.900510
-6.710053 4.691830 -10.223890
-6.165432 4.587590 -9.538680
-5.953235 4.420970 -9.144570
-5.764388 4.292480 -8.714400
-5.622461 4.031010 -8.920880
-5.421953 3.849360 -9.078810
-5.161772 3.652340 -9.264690
-4.938097 3.464480 -9.529530
-4.779073 3.180500 -9.793840
-4.841505 2.741390 -9.876640
-4.877926 2.495810 -10.267500
-4.842597 2.314410 -10.645480
-4.787566 2.056310 -10.952160
-4.711642 1.751140 -11.264350
-4.634821 1.495970 -11.581700
-4.543488 1.245450 -11.880840
-4.460823 1.039090 -12.197500
-4.405197 0.953110 -12.509170
-4.125862 0.972020 -12.622140
-3.807078 1.020640 -12.871980
-3.415125 0.997510 -13.018800
-3.030376 0.954860 -13.063530
-2.651374 0.873450 -13.028340
-2.301835 0.755200 -12.902770
-1.865627 0.747460 -12.813140
-1.391284 0.806310 -12.813910
-0.928248 0.921580 -12.892120
-0.538010 1.148350 -13.077320
-0.284966 1.494430 -13.338960
-0.019424 1.803240 -13.596530
0.268246 2.124320 -13.822090
0.539515 2.401450 -13.971390
0.821386 2.621440 -13.979340
1.115678 2.833630 -13.912160
1.431719 2.965030 -13.786970
1.687424 3.109460 -13.757630
1.877896 3.143050 -13.523210
2.187734 3.284680 -13.292960
2.545143 3.446870 -13.083110
2.910532 3.603380 -12.873900
3.269175 3.783290 -12.641930
3.552273 4.025230 -12.336900
3.763172 4.248390 -11.935600
3.996123 4.409130 -11.515070
4.285454 4.455830 -11.115250
4.567874 4.437590 -10.746500
4.768079 4.370450 -10.392160
5.081146 4.407790 -10.625010
5.378087 4.440300 -10.847980
-8.218388 9.501623 1.026656
-7.544289 8.642906 -0.046751
-7.382573 8.380713 -0.493680
-7.252766 8.145697 -0.975866
-7.131795 7.935038 -1.471182
-7.025350 7.736618 -1.974277
-6.902775 7.556417 -2.477359
-6.711389 7.319124 -2.915561
-6.548902 7.110319 -3.376816
-6.434497 6.960572 -3.876639
-6.251077 6.778167 -4.327031
-6.058846 6.586871 -4.758270
-5.904339 6.439148 -5.225385
-5.808546 6.320777 -5.708832
-5.837927 6.225325 -6.190602
-5.923556 6.072581 -6.626186
-6.235015 5.961581 -7.014279
-6.322818 5.910751 -7.504596
10.667250 7.418962 -5.711122
10.457700 7.384274 -5.036489
10.516450 8.188531 -4.848030
10.290640 8.293301 -4.338842
10.163180 8.376879 -3.821803
10.066560 8.480005 -3.307954
10.026980 8.563657 -2.778850
10.037460 8.625645 -2.246728
10.109370 8.679413 -1.719796
10.254050 8.721890 -1.205144
10.464130 8.762993 -0.714385
10.742150 8.803475 -0.255693
11.079610 8.845330 0.164640
11.474700 8.900383 0.526601
11.946180 8.993660 0.842686
12.606450 9.147213 1.084188
13.429506 9.009621 1.390035
13.782832 9.114868 1.404879
13.544305 9.284988 1.254543
13.231323 9.470354 1.110150
12.983331 9.727316 0.954929
12.756893 9.973002 0.796805
12.517997 10.199095 0.613914
12.255644 10.409300 0.435571
11.997689 10.654980 0.270737
11.710329 10.885393 0.123728
11.386881 10.923345 -0.149778
11.119608 10.862126 -0.446836
10.805259 10.957718 -0.651355
10.475410 11.047144 -0.838115
10.143775 11.094657 -1.006517
9.851426 11.125486 -1.265318
9.553230 11.160341 -1.491055
9.235235 11.236039 -1.681906
8.911228 11.333144 -1.840372
8.581844 11.440350 -2.033639
8.227176 11.533000 -2.175462
7.870559 11.628876 -2.324655
7.504289 11.697240 -2.435461
7.125039 11.763999 -2.550680
6.756286 11.808615 -2.657651
6.378315 11.862884 -2.751856
5.999863 11.895722 -2.821507
5.614984 11.926161 -2.877679
5.217895 11.950563 -2.918747
4.808266 11.932391 -2.942010
4.305349 11.813446 -2.949730
3.853517 12.005347 -2.971608
3.467528 12.099126 -2.970494
3.087551 12.123230 -2.947815
2.703815 12.141974 -2.911155
2.324082 12.128537 -2.853556
1.940362 12.115535 -2.785437
1.556191 12.114558 -2.709997
1.174221 12.092876 -2.625551
0.791116 12.077169 -2.523599
0.412329 12.037648 -2.416319
0.036022 12.001930 -2.291147
-0.331649 11.953423 -2.158409
-0.700319 11.925662 -2.020458
-1.051580 11.884810 -1.858503
-1.412795 11.829650 -1.711694
-1.766258 11.792998 -1.548709
-2.108995 11.731938 -1.376282
-2.474515 11.678850 -1.248797
-2.805265 11.608669 -1.051358
-3.137076 11.521163 -0.854314
-3.509063 11.444286 -0.717883
-3.864676 11.331490 -0.580955
-4.234091 11.220685 -0.479470
-4.587195 11.097127 -0.370297
-4.939855 10.979143 -0.266954
-5.277811 10.853452 -0.158074
-5.599478 10.708195 -0.015166
-5.943638 10.581626 0.102210
-6.285860 10.431971 0.206623
-6.618747 10.268686 0.327451
-6.951695 10.103279 0.435207
-7.272704 9.940874 0.569787
-7.585323 9.716739 0.684024
-7.915461 9.414250 0.800840
5.635431 4.330220 -11.194660
5.878255 4.006540 -11.434330
6.145440 3.734440 -11.473760
6.446409 3.546790 -11.567970
6.632930 3.394280 -11.704920
6.779572 3.513640 -11.881140
6.853904 3.651160 -12.220190
7.062511 3.745630 -11.991370
7.242920 3.785430 -11.758770
7.351263 3.814880 -11.478060
7.379280 3.788440 -11.142490
7.565884 3.854120 -10.865220
7.812582 3.901090 -10.681290
8.081695 3.936100 -10.537830
8.304170 3.996040 -10.329770
8.515535 4.228620 -10.119280
8.547769 4.187710 -9.609770
8.688895 4.343050 -9.203240
8.802054 4.679140 -8.925190
8.620870 5.090060 -8.924110
8.568790 5.511140 -8.909020
8.595490 5.922460 -8.933940
8.819440 6.267960 -9.062485
9.076110 6.594500 -9.254034
9.387460 6.713240 -9.039443
9.636150 6.789610 -8.811531
9.943020 6.855940 -8.616098
10.216890 6.909940 -8.366839
10.387750 6.818410 -7.946197
10.514480 6.733260 -7.488614
10.547250 6.694790 -7.003641
10.518500 6.739930 -6.523242
10.605520 6.818437 -6.083425
10.636050 6.881817 -5.664597
10.919200 6.762105 -5.312199
-6.134523 6.487577 -7.491943
-5.649632 6.512080 -7.725977
-5.529059 6.213392 -7.586175
-6.073172 6.235320 -7.204345
-6.216632 5.685170 -8.022968
-6.422132 5.484200 -8.370300
-6.638818 5.275590 -8.692945
-6.758276 5.101520 -9.004590
-6.711827 4.927970 -9.302190
-6.539347 4.907760 -9.669460
-6.389985 4.742550 -9.936110
-6.105672 5.759680 -7.526732
-5.951564 5.801680 -7.060506
-6.302980 4.768220 -9.308310
-6.036482 4.686850 -8.939330
-5.845689 4.558200 -8.527800
-5.664508 4.409780 -8.099970
-5.547282 4.183320 -8.341350
-5.396699 4.058460 -8.593060
-5.184946 3.967900 -8.790630
-4.885166 3.862560 -8.977710
-4.564248 3.701110 -9.263720
-4.396354 3.230620 -9.402540
-4.398840 2.718730 -9.661310
-4.412652 2.590040 -10.146760
-4.414850 2.300430 -10.447330
-4.347354 2.049700 -10.767660
-4.270124 1.799370 -11.080860
-4.165511 1.591920 -11.413120
-4.057479 1.350930 -11.749620
-3.943140 1.094070 -12.172920
-3.567602 1.051160 -12.448810
-3.229636 1.105130 -12.665320
-2.884738 0.934540 -12.714690
-2.623373 0.865470 -12.778370
-2.336689 0.849670 -12.639970
-1.879377 0.807720 -12.483010
-1.353752 0.856190 -12.458310
-0.868395 0.988420 -12.541680
-0.494714 1.256590 -12.728390
-0.194191 1.569130 -12.971670
0.035873 1.904070 -13.261470
0.372520 2.121740 -13.469500
0.633626 2.357740 -13.594610
0.903851 2.566640 -13.664230
1.169405 2.724600 -13.549490
1.533982 2.912610 -13.369450
1.906638 3.094180 -13.045510
2.257078 3.273710 -12.814700
2.615175 3.448120 -12.602060
2.978718 3.625010 -12.395670
3.323122 3.822300 -12.146170
3.582207 4.020440 -11.768740
3.821158 4.165330 -11.356340
4.071342 4.265010 -10.962520
4.305142 4.289920 -10.587710
4.474829 4.261790 -10.201900
4.639842 4.230020 -9.830560
4.948681 4.314230 -10.066180
5.261270 4.381490 -10.347130
5.578142 4.408640 -10.674870
5.882804 4.388170 -11.080140
6.206669 4.175890 -11.564260
6.326102 3.884890 -11.555100
6.613555 3.747660 -11.673060
13.122570 9.067253 1.281317
12.279870 9.777266 0.769351
12.100620 10.016063 0.614592
11.862580 10.212785 0.430751
11.665000 10.409463 0.203289
11.596889 10.538982 -0.130660
11.105180 10.612305 -0.081757
10.896278 10.499897 -0.411855
10.640963 10.544308 -0.684398
10.324236 10.595557 -0.889019
10.012355 10.598070 -1.084771
9.695018 10.584285 -1.289386
9.385462 10.587289 -1.500123
9.081071 10.621310 -1.742782
8.780211 10.768501 -1.950760
8.473928 10.900535 -2.114269
8.142609 11.015921 -2.252166
7.792237 11.117051 -2.348996
7.427649 11.187829 -2.432860
7.071893 11.243404 -2.534072
6.707421 11.282948 -2.621470
6.348319 11.330625 -2.697305
5.982128 11.361473 -2.756455
5.613957 11.387160 -2.801831
5.239299 11.399365 -2.843971
4.866938 11.339900 -2.858346
4.498585 11.183660 -2.874965
3.650586 11.482590 -2.910968
3.324017 11.586370 -2.920551
2.972420 11.619556 -2.907725
2.612869 11.624248 -2.881348
2.244698 11.611768 -2.843134
1.868355 11.599032 -2.796551
1.494498 11.589246 -2.725470
1.121113 11.568721 -2.640080
0.744267 11.541509 -2.550001
0.372066 11.493163 -2.433094
-0.004062 11.434313 -2.315385
-0.374336 11.373958 -2.179038
-0.734431 11.348273 -2.023454
-1.086224 11.325142 -1.869479
-1.433512 11.284505 -1.702858
-1.780836 11.246389 -1.540793
-2.121295 11.199529 -1.381829
-2.454500 11.143621 -1.202675
-2.789120 11.082659 -1.043154
-3.136036 11.010317 -0.883191
-3.481507 10.925250 -0.726385
-3.849829 10.819358 -0.632695
-4.215705 10.701014 -0.560021
-4.568841 10.575563 -0.494747
-4.916584 10.454053 -0.417627
-5.251581 10.331632 -0.335892
-5.585063 10.210435 -0.246853
-5.915062 10.091156 -0.149277
-6.247619 9.947469 -0.072907
-6.582485 9.788662 -0.001179
-6.906617 9.624329 0.102391
-7.200716 9.510141 0.244270
-7.459869 9.277754 0.328415
-7.710189 8.970168 0.369990
3.951994 11.236430 -2.889681
4.183289 10.845690 -2.874345
6.554005 3.898960 -11.881010
6.735323 4.035470 -11.693190
6.935322 4.173220 -11.493380
7.097374 4.227860 -11.205480
7.265414 4.274700 -10.935130
7.438654 4.338880 -10.667660
7.667887 4.337860 -10.470870
7.829385 4.241610 -10.226890
8.018362 4.269800 -10.015370
8.187446 4.402770 -9.781740
8.275771 4.420060 -9.349150
8.400805 4.533400 -8.918090
8.532759 4.824100 -8.600740
8.470425 5.201400 -8.509010
8.425952 5.579580 -8.439700
8.493040 5.958390 -8.471856
8.678230 6.331760 -8.577037
8.876080 6.675460 -8.614206
9.119160 7.008020 -8.651764
9.435080 7.083630 -8.445670
9.731710 7.123900 -8.249455
9.989520 7.074560 -7.944614
10.255360 7.098610 -7.631466
10.458240 7.083340 -7.247150
10.595800 7.081590 -6.816623
10.709940 7.123990 -6.376860
10.747690 7.177790 -5.940083
10.879440 7.195614 -5.544021
11.060090 7.174598 -5.151737
6.633944 4.463370 -11.130200
6.799660 4.497760 -10.831130
6.983399 4.565870 -10.567000
7.177576 4.596660 -10.305990
7.399238 4.559100 -10.119100
7.576575 4.481760 -9.941600
7.711866 4.495220 -9.707280
7.864782 4.613130 -9.461110
7.974167 4.595320 -9.020460
8.096910 4.688000 -8.596060
8.261468 4.841850 -8.216230
8.280451 5.207320 -8.030260
8.262713 5.580340 -7.935890
8.318376 5.961880 -7.965402
8.463380 6.336210 -8.003591
8.618460 6.771300 -7.900484
8.886600 7.131210 -8.035242
9.227500 7.231080 -7.923173
9.528310 7.192650 -7.741465
9.811720 7.245190 -7.518168
10.077940 7.319610 -7.260850
10.320050 7.393230 -6.965346
10.533760 7.460780 -6.613683
10.729500 7.534890 -6.225123
10.854150 7.583780 -5.797672
10.879590 7.602540 -5.363557
11.074780 7.589574 -4.968177
10.776390 7.632221 -4.613113
10.594600 7.748336 -4.192017
10.589940 8.563113 -4.209327
10.429500 8.630185 -3.719436
10.359490 8.683611 -3.218329
10.287010 8.780414 -2.713522
10.230600 8.887973 -2.213265
10.261040 8.962540 -1.705613
10.364220 9.027300 -1.200463
10.541060 9.087506 -0.708315
10.793940 9.133929 -0.252074
11.118200 9.170442 0.144037
11.501710 9.217643 0.476506
11.923480 9.331873 0.748511
12.452000 9.497615 0.911889
-7.324803 8.952698 -0.051655
-7.164728 8.724074 -0.460790
-7.038067 8.462776 -0.937786
-6.961579 8.267670 -1.467188
-6.794296 8.013337 -1.927495
-6.735243 7.877462 -2.467655
-6.544179 7.630578 -2.896957
-6.423855 7.438027 -3.372837
-6.303674 7.293168 -3.865806
-6.091081 7.095019 -4.296085
-5.922573 6.917442 -4.732227
-5.787944 6.783173 -5.192152
-5.758080 6.708445 -5.677933
-5.693675 6.582025 -6.159989
-6.285105 6.421508 -6.405038
-6.268576 6.426916 -6.945381
-6.419579 4.917300 -9.078320
-6.195284 4.892320 -8.741610
-6.000335 4.798180 -8.325696
-5.803424 4.663030 -7.917389
-5.567355 4.574130 -7.508675
-5.399324 4.338710 -7.739726
-5.287206 4.179090 -8.054720
-5.238722 4.043810 -8.322350
-5.061477 4.230830 -8.465390
-4.727087 4.095570 -8.546100
-4.429550 3.820210 -8.735400
-4.105830 3.594660 -8.914680
-3.939977 2.729680 -9.504110
-3.978393 2.464500 -9.867340
-3.947507 2.421990 -10.343190
-3.890563 2.169640 -10.626870
-3.793933 1.951470 -10.919230
-3.661535 1.610850 -11.117940
-3.583070 1.564350 -11.541940
-3.438675 1.333540 -11.858570
-3.155378 1.299020 -12.143690
-2.841833 1.050710 -12.246230
-2.545848 0.938240 -12.425220
-1.288991 0.981980 -12.097560
-0.787681 1.129420 -12.202850
-0.391658 1.381360 -12.393720
-0.088294 1.684560 -12.628240
0.211465 1.935290 -12.891770
0.510375 2.183860 -13.126360
0.763938 2.380860 -13.299500
0.937401 2.528190 -13.405080
1.095213 2.611230 -13.235830
1.340554 2.741870 -13.002900
1.646322 2.921360 -12.738390
1.970934 3.109120 -12.512140
2.321639 3.296790 -12.314110
2.695314 3.472860 -12.134720
3.071388 3.660490 -11.939720
3.359891 3.833430 -11.588300
3.611150 3.967280 -11.193470
3.856700 4.070710 -10.789350
4.082159 4.136310 -10.444770
4.203803 4.127490 -10.056530
4.327115 4.141150 -9.650780
4.479513 4.144930 -9.245340
4.807890 4.220570 -9.466080
5.131888 4.299160 -9.751790
5.459601 4.363920 -10.090400
5.789682 4.419210 -10.487520
6.111345 4.489620 -10.932110
6.434617 4.381980 -11.386350
-3.873597 3.016820 -9.079340
-3.709692 3.353570 -8.728680
-7.141056 9.190820 -0.047361
-6.905741 9.120889 -0.335090
-6.790814 8.772991 -0.878329
-6.669189 8.495054 -1.362885
-6.609614 8.351857 -1.905202
-6.469255 8.099398 -2.349891
-6.375490 7.964832 -2.874255
-6.219603 7.737153 -3.304435
-6.077181 7.542646 -3.754853
-5.971862 7.447446 -4.263050
-5.807349 7.259166 -4.687704
-5.665798 7.130270 -5.134514
-5.548751 7.012144 -5.566359
-6.193959 6.844308 -5.798329
-6.147954 6.769799 -6.239958
-6.036432 6.774980 -6.663820
-5.770363 6.694559 -6.987628
-5.405675 6.661500 -7.167334
-5.466129 6.247930 -7.026759
-5.804869 6.281140 -6.774634
-5.712230 5.879970 -6.580420
-5.679282 5.465430 -6.415880
-5.827677 5.435310 -6.904632
-5.971265 5.397470 -7.369355
-6.077122 5.325070 -7.778161
-6.124490 5.140490 -8.166600
-6.540361 5.004860 -8.881940
11.848220 9.616575 0.647485
11.727160 9.842680 0.501479
11.538790 10.001520 0.293006
11.350590 10.168856 -0.009336
11.318420 10.325707 -0.366210
11.262220 10.564430 -0.644107
10.846240 10.121438 -0.549549
10.628720 10.135200 -0.841028
10.297890 10.156197 -1.043539
9.995770 10.119560 -1.245795
9.682400 10.054430 -1.445566
9.377860 9.997550 -1.685953
9.037230 9.885860 -2.014673
8.706119 10.189100 -2.175330
8.400648 10.378660 -2.290365
8.078223 10.504020 -2.390627
7.740257 10.608220 -2.462307
7.396346 10.671250 -2.539867
7.052885 10.707970 -2.606074
6.702873 10.737550 -2.658298
6.348468 10.778610 -2.702238
5.990634 10.811600 -2.737033
5.631675 10.836120 -2.770314
5.277016 10.846500 -2.811754
4.935939 10.804460 -2.818777
4.629149 10.701190 -2.840000
4.363186 10.427590 -2.853873
4.091461 10.094470 -2.882054
3.894775 10.473280 -2.874073
3.699788 10.814170 -2.885599
3.476303 11.045030 -2.894318
3.199341 11.115560 -2.894446
2.874885 11.110900 -2.897160
2.528362 11.098970 -2.881076
2.170196 11.086350 -2.857231
1.801771 11.072350 -2.821907
1.431239 11.060820 -2.766083
1.062359 11.040350 -2.692296
0.692953 11.006820 -2.603864
0.317874 10.949320 -2.500078
-0.054757 10.867250 -2.384119
-0.446827 10.776430 -2.249583
-0.807933 10.768300 -2.084426
-1.159136 10.763890 -1.918728
-1.499333 10.738280 -1.747736
-1.837028 10.703840 -1.584973
-2.165541 10.658930 -1.415633
-2.495358 10.608117 -1.251569
-2.833731 10.557114 -1.111480
-3.178119 10.497570 -0.983818
-3.530704 10.437590 -0.893989
-3.875021 10.331395 -0.797794
-4.228368 10.206199 -0.741303
-4.574631 10.074459 -0.701981
-4.911825 9.957123 -0.657961
-5.245214 9.839418 -0.595942
-5.571665 9.733125 -0.528157
-5.900035 9.655129 -0.470689
-6.222810 9.526490 -0.430604
-6.553038 9.358295 -0.397818
6.307261 4.519270 -10.689390
6.476460 4.571910 -10.396210
6.669586 4.599420 -10.107940
6.875010 4.634120 -9.868790
7.113657 4.541900 -9.714210
7.357874 4.524990 -9.682030
7.391741 4.569800 -9.408080
7.497635 4.589370 -9.045470
7.633520 4.640770 -8.653360
7.787610 4.744960 -8.233250
7.968609 4.859170 -7.814480
8.052846 5.165710 -7.541540
8.059928 5.537690 -7.426691
8.121440 5.920660 -7.429536
8.225985 6.277620 -7.435651
8.297828 6.620720 -7.307167
8.748500 7.307650 -7.414515
9.074060 7.406720 -7.377861
9.369950 7.311690 -7.232895
9.655560 7.330800 -7.052505
9.908010 7.478730 -6.859051
10.142440 7.627040 -6.633552
10.361500 7.754480 -6.348854
10.583790 7.896370 -6.031719
10.784720 7.988070 -5.658175
10.948310 8.020760 -5.252849
11.069410 7.992330 -4.852549
11.001010 7.937070 -4.454784
10.806960 8.117421 -4.138630
10.815870 8.160144 -3.630013
10.729780 8.819307 -3.577497
10.658480 8.867736 -3.104160
10.567800 8.960274 -2.620863
10.453780 9.104733 -2.163440
10.419600 9.227641 -1.693263
10.467760 9.328282 -1.198492
10.632060 9.398735 -0.719699
10.870230 9.471777 -0.254946
11.163010 9.483431 0.137468
11.482410 9.502005 0.419498
8.510180 7.081350 -7.330986
8.300019 6.907960 -6.992888
-4.947028 4.230710 -7.932880
-4.426685 4.255320 -7.898170
-4.129959 4.173610 -8.379430
-3.851545 3.901990 -8.535700
-3.506444 3.595070 -8.362810
-3.107880 3.383770 -8.268680
-3.294323 3.133210 -8.580310
-3.441287 2.895900 -8.957700
-3.520300 2.633060 -9.315300
-3.545829 2.500020 -9.734590
-3.522288 2.290270 -10.035480
-3.424369 2.138180 -10.344490
-3.322042 1.885910 -10.566170
-3.175892 1.722900 -10.882550
-3.057395 1.538740 -11.198240
-2.968519 1.621880 -11.626120
-2.707226 1.296870 -11.724580
-2.391605 1.164260 -11.916770
-1.961361 0.961650 -12.087690
-5.034340 4.331530 -7.414296
-3.729720 4.194520 -7.931810
-3.537627 3.974380 -8.093590
-3.243271 3.780560 -8.059980
-2.906881 3.552880 -7.925100
-2.519995 3.388470 -7.842900
-2.733348 3.176150 -8.162380
-2.906726 2.987880 -8.508920
-3.049102 2.772540 -8.841820
-3.130843 2.611750 -9.202060
-3.141061 2.425710 -9.498160
-3.084979 2.272420 -9.789860
-2.974688 2.080220 -10.026580
-2.834899 1.911740 -10.283950
-2.692200 1.740790 -10.562500
-2.588067 1.679440 -10.920990
-2.477738 1.564460 -11.219010
-2.262656 1.453640 -11.438370
-1.981761 1.248500 -11.559720
-1.584091 1.188900 -11.682430
-1.098509 1.182240 -11.747850
-0.643733 1.316520 -11.864390
-0.276751 1.557470 -12.049140
0.053040 1.810310 -12.272520
0.354567 2.036940 -12.521440
0.646781 2.245630 -12.761020
0.898339 2.433410 -13.001880
1.110774 2.570070 -12.702230
1.380981 2.751860 -12.429880
1.695525 2.943680 -12.194870
2.037778 3.147900 -11.993290
2.411047 3.344040 -11.828010
2.821773 3.509590 -11.702770
3.125677 3.683770 -11.422630
3.352551 3.812180 -10.992180
3.653029 3.927270 -10.494570
3.910105 4.015490 -10.327790
3.938046 4.032240 -9.969880
4.015948 4.040580 -9.548440
4.142710 4.061110 -9.109400
4.294429 4.079660 -8.667670
4.648190 4.155270 -8.843630
4.989357 4.225950 -9.105150
5.318356 4.299370 -9.432630
5.648784 4.372380 -9.811560
5.977695 4.441280 -10.231170
-3.856309 4.363590 -7.539348
-3.831864 4.522670 -6.968734
11.487960 9.708895 0.376989
11.075020 10.094248 -0.625874
11.090270 10.306915 -0.927834
10.852040 10.404384 -1.161845
10.700070 9.813480 -1.093217
10.379980 9.818040 -1.335742
10.082970 9.705170 -1.504371
9.795000 9.610130 -1.711808
9.523440 9.494830 -1.952339
9.290790 9.340930 -2.251289
8.605974 9.703660 -2.462376
8.330455 9.892450 -2.535782
8.033973 10.024030 -2.599364
7.725885 10.126920 -2.669679
7.408137 10.172940 -2.742594
7.071779 10.170180 -2.740957
6.725986 10.181300 -2.755140
6.373390 10.218590 -2.764153
6.016907 10.254490 -2.767273
5.658998 10.282500 -2.781735
5.302949 10.299340 -2.797114
4.968556 10.304840 -2.815743
4.718192 10.354380 -2.837350
4.554716 10.054300 -2.851651
4.303356 9.724160 -2.881401
4.023587 9.381990 -2.941217
3.801348 9.744440 -2.914656
3.615983 10.126490 -2.912287
3.463382 10.476310 -2.894673
3.356666 10.737070 -2.886446
3.132245 10.682680 -2.900069
2.823637 10.615610 -2.903066
2.468604 10.569230 -2.909923
2.106614 10.553300 -2.899832
1.739441 10.540560 -2.874203
1.372014 10.529690 -2.832105
1.005267 10.513280 -2.775293
0.640065 10.480190 -2.694182
0.277614 10.416410 -2.607655
-0.105424 10.304730 -2.510058
-0.551945 10.057810 -2.391483
-0.935922 10.176960 -2.166492
-1.274823 10.207590 -1.991552
-1.603248 10.198240 -1.824630
-1.931187 10.170100 -1.665091
-2.253052 10.127910 -1.505045
-2.585426 10.088890 -1.369801
-2.924396 10.045680 -1.252844
-3.266377 10.015620 -1.183159
-3.610935 9.981770 -1.137277
-3.951480 9.926400 -1.111220
-4.273528 9.774810 -1.039884
-4.596143 9.618340 -0.998605
-4.927195 9.499080 -0.977426
-5.250064 9.382570 -0.929552
-5.580126 9.299860 -0.877143
-5.879225 9.274078 -0.807470
-6.185235 9.175881 -0.826545
-6.478175 8.994518 -0.839313
-6.387609 5.076550 -8.601924
-5.734134 4.835250 -7.349783
-5.482155 4.814350 -6.929852
-5.254836 4.550980 -7.097186
-6.402596 8.735396 -1.306982
-6.277855 8.468779 -1.725011
-6.174763 8.268176 -2.201613
-6.048618 8.020881 -2.624312
-5.915841 7.828635 -3.076708
-5.782080 7.678803 -3.549609
-5.654211 7.516228 -3.999009
-5.544802 7.465833 -4.491054
-5.408115 7.349306 -4.928794
-6.060005 7.318153 -5.233044
-5.987898 7.147222 -5.625860
-5.967385 7.109224 -6.033465
-5.778715 7.011247 -6.322481
-5.539011 6.793883 -6.468894
-5.228275 6.670690 -6.597577
-5.326573 6.319850 -6.486174
-5.655258 6.282950 -6.246516
-5.616615 5.904510 -6.072859
-5.436085 5.543400 -5.967230
-5.199821 5.221430 -5.951639
-5.452505 5.143320 -6.399709
-5.688590 5.093380 -6.837592
-5.842705 5.105010 -7.265571
-5.947523 5.120900 -7.601145
-5.916442 4.919910 -7.761022
6.163093 4.475160 -9.937630
6.361560 4.507260 -9.634670
6.591423 4.532600 -9.346800
6.931701 4.537410 -9.121900
7.107121 4.566280 -8.633250
7.282467 4.637910 -8.219400
7.460359 4.731940 -7.809240
7.644348 4.854820 -7.393990
7.794778 5.120870 -7.060725
7.850404 5.490910 -6.897140
7.929958 5.877370 -6.892678
8.016406 6.223380 -6.910225
8.094572 6.510630 -6.843901
8.096761 6.759670 -6.598425
8.100218 7.012330 -6.278844
8.286058 7.146860 -6.635471
8.435750 7.267360 -6.937809
9.273700 7.491730 -6.729182
9.540400 7.474750 -6.589887
9.791660 7.557620 -6.428094
9.977970 7.765840 -6.286501
10.149300 7.924260 -6.036680
10.345760 8.141720 -5.759759
10.556470 8.285690 -5.426084
10.780640 8.353190 -5.056632
10.976130 8.309260 -4.690965
11.059280 8.189300 -4.423018
11.075340 8.321810 -4.094587
11.026900 8.417320 -3.653536
11.087550 8.572150 -3.224443
10.987370 8.806640 -2.885210
10.847160 9.048216 -2.496631
10.693160 9.282592 -2.101583
10.574790 9.477702 -1.694491
10.683570 9.531771 -1.259840
10.746600 9.700300 -0.787076
11.025320 9.856258 -0.269044
11.279900 9.771134 0.165044
8.883960 9.409050 -2.484352
9.163850 9.049190 -2.645750
10.958290 9.865619 -1.009591
11.093800 10.038305 -1.238984
10.916060 10.154945 -1.484127
10.602930 10.043908 -1.685364
10.498150 9.635580 -1.706609
10.235450 9.416130 -1.846947
9.963070 9.268360 -2.042674
9.709790 9.141940 -2.249143
9.499680 9.064510 -2.449011
9.269720 8.507190 -3.368131
8.987210 8.785130 -3.060743
8.747940 9.093100 -2.849232
8.520115 9.342930 -2.768090
8.277268 9.480400 -2.800201
8.004713 9.578800 -2.868544
7.768940 9.723590 -3.002434
7.457645 9.686700 -2.982519
7.132630 9.636760 -2.927508
6.782278 9.632090 -2.912290
6.424260 9.658450 -2.880315
6.062820 9.699650 -2.845988
5.697758 9.730250 -2.826765
5.324530 9.739780 -2.826788
4.883367 9.720390 -2.846722
4.541628 9.349540 -2.907186
4.247497 9.017510 -2.969568
3.979301 8.668280 -3.063167
3.735561 9.021660 -3.016305
3.505878 9.393820 -2.983028
3.294480 9.803640 -2.957929
3.178352 10.262230 -2.916800
10.849400 8.632920 -4.294385
10.941600 8.790280 -3.738267
10.964030 8.953260 -3.304724
11.021680 9.177330 -2.941884
11.043470 9.329771 -2.520841
11.001300 9.390316 -2.086674
10.919730 9.468423 -1.714469
10.843330 9.717197 -1.398210
3.638698 3.908600 -9.943380
3.705599 3.941680 -9.466420
3.811026 3.971090 -9.007980
3.950816 4.001730 -8.547110
4.105808 4.015850 -8.084600
4.463858 4.084940 -8.228510
4.828256 4.157800 -8.442480
5.176381 4.230490 -8.741290
5.510477 4.308060 -9.100260
5.839601 4.387170 -9.502770
-6.101351 8.867400 -1.194399
-5.974235 8.647350 -1.571899
-5.859284 8.365280 -1.977918
-5.742803 8.131370 -2.412381
-5.606347 7.932070 -2.845348
-5.472617 7.768730 -3.311370
-5.363113 7.686536 -3.810007
-5.246516 7.582882 -4.280505
-5.885032 7.775548 -4.693861
-5.826847 7.562582 -5.092356
-5.791802 7.442850 -5.481704
-5.721542 7.335077 -5.804414
-5.564216 7.114490 -5.911560
-5.421676 6.851550 -5.960927
-5.142079 6.708500 -6.032045
-5.167810 6.378630 -5.960129
-5.461288 6.329690 -5.763019
-5.399307 5.970030 -5.607054
-5.208604 5.645090 -5.514452
-4.945193 5.373860 -5.505078
-4.629261 5.169380 -5.553147
-4.903612 4.990000 -6.013703
-5.196120 4.861170 -6.476458
-4.150832 4.703060 -6.334861
-3.676641 4.728050 -6.387505
-3.239608 4.773710 -6.381884
-3.366602 4.583600 -6.854414
-3.411921 4.403810 -7.276628
-3.362431 4.221120 -7.583050
-3.244678 4.052090 -7.747870
-3.018459 3.888860 -7.721460
-2.687282 3.744740 -7.623770
-2.328720 3.586980 -7.502900
-1.940013 3.457330 -7.440280
-2.137996 3.231480 -7.782870
-2.346214 3.045120 -8.133180
-2.555759 2.852510 -8.454010
-2.702772 2.706610 -8.783340
-2.797265 2.556200 -9.062450
-2.765831 2.418870 -9.304270
-2.668951 2.256480 -9.524810
-2.194903 1.833280 -10.289330
-2.095161 1.715340 -10.605350
-1.991616 1.637640 -10.904990
-1.842146 1.513450 -11.127300
-1.636144 1.422270 -11.294210
-1.292192 1.374220 -11.361970
-0.880717 1.416750 -11.431000
-0.462436 1.542080 -11.537120
-0.092959 1.759170 -11.711960
0.235872 1.997710 -11.928840
0.550592 2.201460 -12.171280
0.843873 2.395290 -12.427450
2.818942 10.087770 -2.946121
2.430530 10.031130 -2.957847
2.052195 10.011100 -2.965758
1.677609 10.002260 -2.950382
1.309162 9.996760 -2.924323
0.946809 9.989890 -2.882162
0.589061 9.966230 -2.818224
0.241597 9.915970 -2.733955
-0.096702 9.793460 -2.663890
-0.419782 9.579790 -2.618207
-1.142258 9.602600 -2.257136
-1.436487 9.676330 -2.093748
-1.744329 9.675020 -1.936550
-2.053872 9.647470 -1.781698
-2.369032 9.609110 -1.632699
-2.700737 9.581080 -1.527560
-3.038883 9.550260 -1.440664
-3.380665 9.541520 -1.397492
-3.716030 9.564410 -1.432088
-4.047201 9.575930 -1.481578
-4.371965 9.470060 -1.456394
-4.617520 9.229870 -1.388879
-4.933957 9.072720 -1.354499
-5.268071 8.990970 -1.338779
-5.638450 8.855260 -1.318290
-5.880062 9.010030 -1.116967
1.099663 2.583070 -12.130830
1.399771 2.786870 -11.870810
1.734320 2.991950 -11.648000
2.094369 3.186570 -11.460410
2.457516 3.370540 -11.316030
2.822335 3.526050 -11.170030
3.025923 3.637610 -10.809090
3.267458 3.752050 -10.419300
3.301094 3.789830 -9.894080
3.380381 3.833350 -9.397420
3.490434 3.874590 -8.916260
3.620844 3.917640 -8.446610
3.761105 3.944550 -7.977380
3.918354 3.971080 -7.503940
4.277088 4.027460 -7.622950
4.647594 4.096390 -7.792010
5.020803 4.162870 -8.038580
5.371347 4.238260 -8.365120
5.706585 4.331630 -8.751440
6.037515 4.420260 -9.180050
-5.448371 8.265260 -2.226271
-5.296884 8.077290 -2.614936
-5.177948 7.943280 -3.109112
-5.057145 7.824880 -3.604022
-5.673758 8.047260 -4.042788
-5.586974 7.883330 -4.501481
-5.533862 7.684520 -4.930749
-5.527208 7.502160 -5.299202
-5.536225 7.369980 -5.558666
-5.449194 7.185280 -5.502985
-5.335548 6.954530 -5.473821
-5.093187 6.776910 -5.505788
-5.006592 6.484680 -5.458044
-5.237795 6.395480 -5.318614
-5.189121 6.065020 -5.152221
-4.959726 5.790090 -5.081168
-4.689049 5.559700 -5.065460
-4.374320 5.389470 -5.110297
-4.032205 5.284530 -5.187685
-4.280886 5.033010 -5.648151
-4.559798 4.806960 -6.141407
6.259711 4.450490 -8.849960
6.504259 4.493950 -8.515740
6.727172 4.532680 -8.134580
6.929716 4.603940 -7.748800
7.127198 4.704950 -7.353410
7.320230 4.851520 -6.948110
7.482918 5.121480 -6.596100
7.633601 5.470120 -6.364838
7.724543 5.884830 -6.336591
7.859433 6.224490 -6.433528
7.954676 6.444180 -6.506389
7.919931 6.612350 -6.254007
7.896349 6.850630 -5.925829
7.922477 7.132400 -5.581169
8.143527 7.272090 -5.923471
8.275092 7.442530 -6.335448
8.598360 7.497720 -6.759142
11.115440 9.805774 -1.534761
10.981390 9.923396 -1.798982
10.710310 9.903984 -2.110069
10.668710 9.464360 -2.069002
10.416460 9.233140 -2.240506
10.159500 8.984050 -2.411479
9.873860 8.850150 -2.651203
11.034020 9.689903 -2.036790
10.800010 9.324910 -2.442648
10.591560 9.134100 -2.633486
10.345350 8.941370 -2.871062
10.091600 8.731750 -3.120251
9.812330 8.539050 -3.414451
9.519530 8.751590 -2.876953
9.555560 8.341610 -3.789277
9.309280 8.158730 -4.187158
9.031080 8.326070 -3.779695
8.787590 8.590320 -3.434482
8.591005 8.888500 -3.163701
8.459834 9.120540 -3.004185
8.269044 9.136060 -3.091268
8.011054 9.173320 -3.191734
7.842676 9.357380 -3.376329
7.561700 9.221760 -3.266556
7.233920 9.134800 -3.196545
6.874923 9.070840 -3.138485
6.494609 9.110880 -3.045429
6.127591 9.155100 -2.969112
5.766041 9.192930 -2.916618
5.407878 9.194070 -2.904402
5.051661 9.119870 -2.915828
4.731980 8.908820 -2.967984
4.453339 8.644360 -3.033422
4.214849 8.315970 -3.121715
3.987161 7.956040 -3.244089
3.726178 8.289280 -3.180636
3.467449 8.623920 -3.116790
3.194824 8.989940 -3.078174
2.861061 9.423680 -3.018697
7.744119 6.384520 -5.982942
7.694927 6.671910 -5.595930
7.680913 7.006250 -5.251067
7.699435 7.340100 -4.914999
7.967419 7.432430 -5.209769
8.045258 7.612170 -5.576679
8.313976 7.717780 -5.875527
8.635630 7.711380 -6.120496
8.951140 7.589350 -6.220905
8.973010 7.541220 -6.798815
-0.881780 9.452140 -2.464856
-0.694716 9.183430 -2.685281
9.219990 7.599760 -6.259603
9.451220 7.644980 -6.162709
9.683350 7.728240 -6.038192
9.877660 7.795980 -6.005131
9.942590 7.969750 -5.729411
10.105670 8.155690 -5.415687
10.269520 8.417320 -5.094458
10.520860 8.568500 -4.733368
2.380159 9.447530 -3.048034
1.981057 9.453350 -3.056033
1.602241 9.457850 -3.054075
1.233524 9.463910 -3.039916
0.874242 9.466830 -3.007287
0.524745 9.463110 -2.962514
0.188654 9.436150 -2.891345
-0.114896 9.373390 -2.814600
-0.343841 9.307240 -2.758755
-0.963595 8.720320 -2.783145
-1.144431 8.957300 -2.564422
-1.357391 9.103650 -2.366778
-1.618438 9.166180 -2.217887
-1.906000 9.177690 -2.084824
-2.197621 9.140110 -1.930772
-2.512267 9.111280 -1.811585
-2.842597 9.092970 -1.725973
-3.180526 9.086600 -1.671779
-3.523752 9.082830 -1.634659
-3.844589 9.157710 -1.729325
-4.141520 9.238430 -1.858239
-4.483107 9.229960 -1.917336
-4.650724 8.893180 -1.832123
-4.945891 8.721470 -1.799962
-5.235381 8.641490 -1.742145
-5.543521 8.517990 -1.815328
0.796223 2.398390 -11.856050
1.083564 2.608950 -11.573320
1.396491 2.825470 -11.321810
1.736550 3.027520 -11.104060
2.086107 3.213860 -10.920270
2.410271 3.378880 -10.742880
2.632376 3.502670 -10.449240
2.842280 3.603090 -10.097550
2.960663 3.679600 -9.704190
3.067131 3.735600 -9.256200
3.184769 3.792610 -8.802800
3.306936 3.842900 -8.342970
3.432766 3.880730 -7.876860
3.568057 3.936440 -7.409750
3.713646 4.034320 -6.943310
4.080596 4.028460 -7.027300
4.462861 4.043650 -7.157530
4.844309 4.109620 -7.350700
5.220098 4.180490 -7.626020
5.576073 4.255810 -7.980700
5.918387 4.354730 -8.387720
7.484742 6.020080 -5.661605
7.422932 6.504860 -5.221734
7.407999 6.908880 -4.890913
7.427625 7.289420 -4.600100
7.462938 7.629490 -4.346234
7.713117 7.660370 -4.584992
7.944634 7.760510 -4.837324
8.704180 7.751360 -5.547355
8.989070 7.675640 -5.749879
9.187190 7.666590 -5.917630
9.351960 7.742530 -5.732829
9.628880 7.916360 -5.526089
9.834490 8.134530 -5.040905
10.056740 8.297790 -4.676090
10.203140 8.642440 -4.374440
10.466940 8.851610 -4.020153
10.658110 9.104880 -3.654562
10.802130 9.314640 -3.289578
10.873130 9.506079 -2.939984
10.903380 9.725986 -2.500201
-3.051319 4.101770 -7.510270
-2.535244 3.928050 -7.310250
-2.163295 3.819780 -7.177460
-1.776921 3.692350 -7.079250
-1.379141 3.577390 -7.043480
-1.556147 3.317830 -7.411370
-1.758892 3.100960 -7.778040
-1.981107 2.908730 -8.128250
-2.207209 2.757770 -8.466820
-2.413500 2.621490 -8.755450
-2.551995 2.543300 -8.978090
-1.708749 1.903320 -10.015760
-1.574872 1.817590 -10.336570
-1.509182 1.705090 -10.647510
-1.447745 1.614810 -10.913270
-1.392691 1.524430 -11.095870
-1.090635 1.560560 -11.098000
-0.689470 1.629290 -11.128970
-0.259004 1.771570 -11.218860
0.120602 1.983470 -11.388530
0.469135 2.201880 -11.606070
-5.047070 6.862140 -4.998886
-4.827267 6.631510 -5.010360
-5.216237 8.400570 -2.095218
-5.384532 8.357870 -3.427792
-5.349412 8.142280 -3.879527
-5.290079 7.872530 -4.299281
-5.258418 7.605450 -4.731770
-5.327613 7.363860 -5.146556
-4.952779 6.994150 -4.501911
-4.732021 6.784850 -4.562981
-4.881795 6.622820 -4.439885
-5.091970 6.494610 -4.847231
-3.900144 4.962520 -5.776369
-3.493293 4.966400 -5.869953
-3.085389 5.001720 -5.906158
-2.675627 5.036560 -5.909714
-2.824753 4.794050 -6.355525
-2.982871 4.592340 -6.744378
8.084333 8.795250 -3.548659
8.368849 8.811010 -3.392669
7.931595 8.999310 -3.773410
7.695020 8.812430 -3.631683
7.382793 8.657140 -3.537303
6.997553 8.444080 -3.498582
6.562500 8.555810 -3.267259
6.192155 8.635360 -3.129195
5.835992 8.682780 -3.053445
5.495700 8.683740 -3.005905
5.174611 8.618310 -3.019539
4.883717 8.472460 -3.064116
4.637309 8.293000 -3.121433
4.448645 7.997740 -3.216248
4.253733 7.645550 -3.331233
4.050876 7.272460 -3.487176
3.766815 7.570780 -3.398906
3.486453 7.878530 -3.315315
3.210174 8.195530 -3.255750
2.933803 8.499960 -3.201205
2.615272 8.753350 -3.149653
2.247821 8.850940 -3.165937
1.877363 8.892330 -3.183564
1.506271 8.911220 -3.187745
1.140479 8.931920 -3.186693
0.782346 8.947200 -3.153763
0.430338 8.963020 -3.122081
0.091184 8.960750 -3.060132
-0.221303 8.945630 -2.967087
8.535357 8.488450 -3.746385
8.228712 8.438900 -3.997410
7.994661 8.663390 -4.212709
7.825264 8.432440 -4.022426
7.549802 8.279680 -3.922462
7.314426 8.071470 -3.903818
6.556893 8.053090 -3.486892
6.219504 8.157330 -3.329919
5.884973 8.202130 -3.205401
5.562807 8.220160 -3.157953
8.765070 8.176500 -4.166374
8.030812 8.310000 -4.702242
7.910100 8.099610 -4.441019
7.673563 7.969610 -4.272602
7.479101 7.887260 -4.166691
9.069220 7.980110 -4.584967
8.382893 7.951460 -5.350624
8.026240 7.951260 -5.166482
-1.270610 8.293650 -2.871811
-1.145314 8.042320 -3.112456
-1.408678 8.530680 -2.666018
-1.561436 8.686540 -2.488026
-1.785973 8.712120 -2.357082
-2.058843 8.694120 -2.238139
-2.354221 8.660050 -2.124475
-2.667650 8.636260 -2.028369
-2.999299 8.625440 -1.954110
-3.341602 8.639570 -1.923551
-3.687064 8.671650 -1.928755
-4.024273 8.736860 -1.988191
-4.228891 8.903060 -2.235888
-4.548838 8.987850 -2.384621
-4.859392 8.784720 -2.381526
-4.981819 8.357070 -2.331679
-4.949148 6.206480 -4.751118
-4.722346 5.961030 -4.665370
-4.439707 5.775080 -4.648487
-4.128148 5.638900 -4.680061
-3.802708 5.559560 -4.754532
-3.465271 5.519620 -4.838547
-3.674453 5.230450 -5.293019
6.143224 4.395990 -8.021120
6.366297 4.455690 -7.653630
6.583207 4.537480 -7.279100
6.792218 4.651630 -6.889500
6.971153 4.869550 -6.508528
7.148059 5.143120 -6.134726
7.308521 5.514810 -5.840606
9.352710 7.948880 -5.021941
9.138280 7.763700 -5.375921
10.539610 8.954390 -3.281455
10.743320 9.138950 -2.996404
10.872790 9.292260 -2.788650
-1.015610 1.699410 -10.815430
-0.537499 1.823390 -10.806130
-0.066914 1.986040 -10.901130
0.355526 2.202940 -11.074100
0.734747 2.414830 -11.305860
9.568490 8.142070 -4.624496
1.027588 2.626810 -11.024610
1.339212 2.838310 -10.770320
1.673287 3.036750 -10.554480
1.982413 3.215040 -10.344810
2.233254 3.344250 -10.065350
2.443671 3.470340 -9.748120
2.615028 3.565320 -9.399650
2.765093 3.645790 -9.039480
2.893203 3.710560 -8.641910
3.003571 3.774710 -8.216250
3.113191 3.835750 -7.769570
3.231853 3.923980 -7.315770
3.357328 4.038670 -6.866140
3.478971 4.193860 -6.429500
3.852849 4.172070 -6.481680
4.241404 4.147610 -6.549540
4.644559 4.138470 -6.694040
5.047185 4.150930 -6.915180
5.435329 4.201390 -7.217410
5.792550 4.296330 -7.592510
-3.305941 5.229900 -5.381901
-2.932861 5.260390 -5.453352
-2.545409 5.300040 -5.477161
-2.134035 5.357170 -5.447544
-2.236805 5.042220 -5.870909
-2.697665 4.560690 -6.671130
-2.717602 4.394980 -6.918601
-3.042092 4.408360 -7.074093
9.810960 8.312900 -4.234654
-2.761457 4.200430 -7.181026
-2.413960 4.155700 -7.008005
-2.039175 4.066470 -6.842056
-1.632566 3.981190 -6.731410
-1.232490 3.849920 -6.661090
-0.817772 3.749920 -6.675480
-0.981967 3.466330 -7.067820
-1.166469 3.215210 -7.459570
-1.378981 2.983670 -7.833430
-1.620313 2.795110 -8.198450
-1.896917 2.634180 -8.536960
-2.171942 2.519190 -8.846850
4.991705 8.069220 -3.174223
4.772264 8.037140 -3.200312
4.685437 7.736990 -3.293780
4.534632 7.379360 -3.424597
4.354580 7.000360 -3.593243
4.158408 6.618440 -3.782480
3.842606 6.886020 -3.673947
3.542716 7.174180 -3.581781
3.250831 7.461380 -3.482713
2.966048 7.752840 -3.409781
2.697297 8.026520 -3.345752
2.434690 8.244660 -3.294002
2.118080 8.304470 -3.300860
1.762655 8.337790 -3.334521
1.398223 8.368260 -3.355815
1.030737 8.398680 -3.349792
0.671206 8.431680 -3.328298
0.319943 8.467840 -3.301821
-0.018297 8.485430 -3.246466
-0.359043 8.480650 -3.166165
-0.743865 8.437340 -3.035711
-0.502592 8.970360 -2.850613
5.265356 8.163940 -3.141195
5.329352 7.764190 -3.290645
5.026913 7.593590 -3.348060
4.846999 7.146580 -3.527684
4.675406 6.750250 -3.718122
4.493101 6.367970 -3.928349
4.276402 6.012070 -4.154435
3.944325 6.248740 -4.007302
3.623981 6.507040 -3.900865
3.312991 6.772990 -3.780761
3.009440 7.051490 -3.681968
2.720476 7.328620 -3.589453
2.456958 7.608390 -3.498838
2.305455 7.885930 -3.423063
2.027386 7.806990 -3.469543
1.661245 7.800290 -3.502252
1.283656 7.826540 -3.541072
0.907465 7.869420 -3.541993
0.545744 7.920330 -3.529194
0.201024 7.978800 -3.501095
-0.129685 8.023370 -3.454835
-0.449850 8.025930 -3.388673
-0.768853 7.961530 -3.330687
-1.072897 7.775750 -3.347190
-1.328475 7.475120 -3.450482
-1.459554 7.677210 -3.225479
-1.592722 7.912140 -2.975482
-1.717867 8.400080 -2.586128
-2.505609 8.204810 -2.352862
-2.825405 8.178160 -2.269571
-3.165925 8.181650 -2.220943
-3.511292 8.213660 -2.208686
-3.863825 8.282390 -2.237203
-4.201263 8.376620 -2.310363
-4.391133 8.556470 -2.547821
-4.615372 8.726150 -2.798946
-4.992435 8.722450 -2.902009
-4.927028 8.191740 -2.926779
-2.363070 4.403930 -6.700128
-1.934460 4.368660 -6.511639
-1.508976 4.279280 -6.357226
-1.084799 4.170690 -6.289411
-0.668720 4.060820 -6.288642
-0.254490 3.969270 -6.330860
-0.410706 3.654540 -6.725080
-0.579785 3.366710 -7.129070
-0.771225 3.105430 -7.533520
-0.993118 2.888410 -7.939030
-1.264543 2.675040 -8.310710
-1.580959 2.515150 -8.666060
-1.922078 2.385960 -8.984950
-2.283766 2.304320 -9.271340
-2.447744 2.427700 -9.101390
-2.388310 4.712020 -6.351652
-1.854377 4.693460 -6.140861
-1.364636 4.641280 -5.974359
-0.912489 4.511090 -5.909062
-0.491802 4.398010 -5.916634
-0.098500 4.295850 -5.945356
0.307075 4.211270 -5.992436
0.157763 3.881320 -6.390520
0.002321 3.585670 -6.810630
-0.167824 3.300910 -7.230970
-0.361818 3.042940 -7.657630
-0.589791 2.810780 -8.070130
-0.871862 2.600260 -8.488200
-1.247015 2.396490 -8.848440
-1.667511 2.262340 -9.179890
-1.404023 2.141320 -9.432860
-1.181081 2.039870 -9.757370
-1.019608 1.934200 -10.119960
-0.991514 1.830300 -10.494590
-4.722711 6.374240 -4.363628
-4.494315 6.172760 -4.277765
-4.207936 6.022450 -4.249528
-3.899354 5.919220 -4.273907
-3.581246 5.855560 -4.337222
-3.265685 5.822240 -4.423430
-2.951759 5.817120 -4.526731
-3.127121 5.515760 -4.939097
0.613101 2.420380 -10.764870
0.911572 2.633550 -10.477700
1.233218 2.847400 -10.213070
1.552176 3.042600 -9.966240
1.828175 3.203390 -9.681850
2.068716 3.339670 -9.363040
2.289109 3.454040 -9.052430
2.482757 3.562250 -8.750990
2.636331 3.640640 -8.453790
2.713212 3.704730 -8.073850
2.792430 3.795280 -7.649230
2.897510 3.905680 -7.207470
3.015581 4.051630 -6.769280
3.143868 4.213780 -6.358580
3.245211 4.395700 -5.988720
3.578824 4.380630 -6.014700
3.954521 4.358660 -6.030830
4.390778 4.335320 -6.069310
4.825224 4.286830 -6.236650
5.249178 4.269100 -6.489200
5.651319 4.274560 -6.814900
6.016876 4.346160 -7.210960
6.234409 4.456390 -6.829830
6.427073 4.642280 -6.457390
6.601916 4.889550 -6.092584
6.768975 5.184400 -5.726862
6.917275 5.546260 -5.397227
7.042581 5.974600 -5.100583
7.067557 6.441370 -4.789548
7.084623 6.902200 -4.492380
7.139240 7.339440 -4.256226
-0.408120 2.000160 -10.443070
0.148039 2.191080 -10.563800
-5.040622 8.473510 -3.320311
-5.039479 8.144200 -3.672686
-5.018972 7.811280 -4.019601
-5.089212 7.366980 -4.410017
2.069327 7.230110 -3.680278
1.571209 7.240830 -3.720292
1.152102 7.278060 -3.755270
0.762032 7.341570 -3.761954
0.395026 7.414960 -3.756900
0.058018 7.505110 -3.728051
-0.256043 7.575500 -3.673634
-0.560671 7.611770 -3.615276
-0.827165 7.603360 -3.544553
-1.031660 7.572380 -3.511715
-1.191650 7.328800 -3.637399
-1.386937 7.016280 -3.824608
-1.581810 7.133570 -3.628265
-1.770713 7.283860 -3.398448
-2.307941 7.835970 -2.686640
-2.194359 8.260150 -2.437127
-4.722880 8.392550 -3.112434
-4.818481 8.065410 -3.372482
-4.853642 7.750810 -3.580953
-4.864210 7.403420 -3.879076
-4.775927 7.122030 -4.094077
-4.624155 6.909430 -4.183973
-4.736396 6.731590 -4.055231
-4.521020 6.573900 -3.993832
-4.280586 6.415790 -3.907312
-3.990369 6.306080 -3.872062
-3.680783 6.225920 -3.886662
-3.366868 6.180870 -3.943325
-3.058066 6.159430 -4.029741
-2.758166 6.154970 -4.142710
-2.478692 6.152210 -4.271274
-2.637942 5.832750 -4.627330
-2.784383 5.541820 -5.022587
-2.436919 5.586420 -5.068938
-2.068272 5.670600 -5.050593
-1.679358 5.772530 -4.966908
-1.705014 5.428930 -5.330016
-1.744743 5.063090 -5.724903
0.415188 2.414700 -10.209080
0.783873 2.655300 -9.890750
1.131435 2.870810 -9.604990
1.439280 3.061810 -9.296190
1.717538 3.218460 -8.964420
1.987227 3.385990 -8.636990
2.259091 3.509900 -8.415440
2.443420 3.599850 -8.279860
2.442896 3.641240 -7.959760
2.482459 3.737770 -7.538680
2.561494 3.883390 -7.083410
2.687339 4.065760 -6.637840
2.839282 4.257500 -6.233400
3.002201 4.404300 -5.960630
2.933865 4.586040 -5.673207
3.269052 4.614670 -5.627402
3.620428 4.607690 -5.623312
4.002782 4.597760 -5.600624
4.524651 4.624510 -5.513434
5.024552 4.510040 -5.803500
5.459389 4.444450 -6.087450
5.858057 4.432390 -6.431900
6.526444 7.639770 -3.694224
6.233852 7.714640 -3.512294
5.921776 7.768520 -3.387956
5.615716 7.787870 -3.311988
-2.646957 7.772680 -2.620429
-2.983523 7.742330 -2.538540
-3.339350 7.754840 -2.508978
-3.700635 7.812370 -2.527458
-4.035736 7.930380 -2.590455
-4.359426 8.065590 -2.690963
-4.553034 8.248950 -2.840990
-0.598655 2.223720 -9.488400
-0.247557 2.192790 -9.946860
6.047404 4.653450 -6.065200
6.223600 4.910880 -5.706617
6.367192 5.232540 -5.363982
6.492933 5.608320 -5.045839
6.606968 6.015510 -4.732791
6.663526 6.463280 -4.434204
6.679391 7.003380 -4.107758
6.824802 7.464500 -3.937188
6.898540 7.910800 -3.730401
7.193651 7.733640 -4.052052
-4.659590 8.024290 -3.110784
-4.566365 7.752590 -3.146817
-4.614931 7.417280 -3.515870
-4.582053 7.170580 -3.778214
-4.599404 6.986490 -3.899231
-4.576990 6.878070 -3.749786
-4.367036 6.769270 -3.656579
-4.100004 6.692820 -3.566755
-3.798091 6.620580 -3.510759
-3.480978 6.563300 -3.515082
-3.159406 6.541320 -3.572866
-2.843806 6.535310 -3.662685
-2.543777 6.520580 -3.794470
-2.274043 6.491950 -3.960098
-2.028301 6.440610 -4.121443
-2.015482 6.153650 -4.457406
-2.328624 5.879280 -4.698100
6.485475 7.315400 -3.820317
6.229749 7.330740 -3.696623
5.936528 7.365230 -3.570715
5.644271 7.419040 -3.476915
5.418938 7.468380 -3.417030
5.295998 7.231880 -3.507345
5.156261 6.893880 -3.685292
5.008605 6.509130 -3.870906
4.839234 6.126200 -4.088960
4.630480 5.759910 -4.348428
4.364831 5.457130 -4.587580
4.056300 5.689070 -4.408039
3.724222 5.908930 -4.278732
3.396373 6.127950 -4.155705
3.086212 6.389540 -4.027701
2.776286 6.637920 -3.903858
2.448427 6.899640 -3.792692
-0.973955 7.271120 -3.744411
-1.158366 6.932950 -3.968388
-1.375869 6.577520 -4.220017
-2.431049 7.379240 -2.987732
-2.793776 7.349100 -2.909727
-3.140764 7.326770 -2.835559
-3.503270 7.350440 -2.831722
-3.913868 7.379700 -2.892623
-4.236931 7.598350 -2.944179
0.312705 2.490730 -9.562310
0.731761 2.727540 -9.254080
1.065326 2.931720 -8.918430
1.356464 3.122990 -8.538810
1.673905 3.346830 -8.057380
2.137322 3.538680 -7.968470
2.137655 3.661290 -7.463260
2.212877 3.843600 -6.960690
2.340872 4.083250 -6.460100
2.537014 4.403160 -5.910480
2.521686 4.787450 -5.391095
2.912526 4.881170 -5.276971
3.296830 4.893290 -5.260166
3.639130 4.866520 -5.268555
3.965250 4.859660 -5.243548
4.302907 4.965200 -5.088467
5.255497 4.765340 -5.433544
5.655401 4.690010 -5.725443
-1.286759 5.872460 -4.858208
-1.253095 5.539160 -5.156841
-1.151161 5.102850 -5.490627
5.817318 4.979830 -5.390787
5.955464 5.299610 -5.047525
6.072232 5.675090 -4.747678
6.187858 6.069300 -4.450012
6.255107 6.494790 -4.165647
6.276480 6.935370 -3.916779
-0.070769 2.460010 -9.182360
-4.380256 7.333460 -3.280962
-4.472627 7.085080 -3.519671
-2.964027 6.932990 -3.226509
-2.632689 6.940930 -3.324547
-2.304679 6.937480 -3.456109
-2.040721 6.867100 -3.662084
-1.812561 6.775200 -3.861178
-1.598374 6.686020 -4.051779
-1.815635 6.373150 -4.288186
5.918441 6.986360 -3.767487
5.594221 7.072350 -3.627236
5.502462 6.696650 -3.814054
5.383800 6.302900 -4.027043
5.227510 5.911520 -4.289729
5.023706 5.462310 -4.610042
4.642508 5.183040 -4.857323
3.843486 5.406930 -4.679790
3.529460 5.559530 -4.559565
3.176455 5.750780 -4.448395
2.868902 6.010660 -4.295938
2.553917 6.227440 -4.162310
2.224852 6.426610 -4.063342
1.843443 6.608920 -3.989002
1.420696 6.676950 -3.990466
0.985888 6.728130 -4.014733
0.583085 6.819400 -4.014258
0.200717 6.917540 -4.017113
-0.133812 7.048110 -3.969603
-0.424611 7.159990 -3.909741
-0.711812 7.222960 -3.833437
4.888996 4.906510 -5.170748
-0.903187 6.854700 -4.061262
-1.101354 6.514770 -4.310002
-1.258401 6.193010 -4.576395
-1.630783 6.173810 -4.554467
-3.299247 6.932990 -3.162398
-4.263226 7.002440 -3.368592
-4.198833 7.223690 -3.149638
-0.690450 4.895130 -5.524554
-0.295280 4.752200 -5.553166
0.082804 4.641220 -5.581933
0.460435 4.563520 -5.620317
0.849558 4.494650 -5.658641
0.712022 4.151760 -6.062960
0.575445 3.820140 -6.479070
0.426413 3.528560 -6.918140
0.260280 3.252040 -7.357320
0.066367 3.011160 -7.791920
-0.150592 2.785530 -8.229720
-0.373961 2.531620 -8.723500
0.368055 2.662040 -8.927450
1.733851 3.564040 -7.388050
1.825123 3.798770 -6.846230
1.940310 4.068750 -6.345400
2.056956 4.398590 -5.852992
2.119312 4.753360 -5.392574
5.433486 5.047660 -5.127538
5.520619 5.386390 -4.796057
5.655801 5.766810 -4.488505
5.771548 6.175420 -4.236691
5.868926 6.577070 -3.983398
-0.952183 6.018720 -4.713167
-0.840548 5.747680 -4.891975
-0.668566 5.460670 -5.062857
-0.388186 5.251710 -5.155134
-0.062333 5.106140 -5.210954
0.267798 4.995980 -5.246260
0.614282 4.925940 -5.267860
0.981142 4.873580 -5.287339
1.352553 4.812230 -5.315432
1.244570 4.443630 -5.715412
1.121622 4.103230 -6.145140
0.994935 3.785540 -6.593030
0.858281 3.496130 -7.056530
0.697656 3.237620 -7.517550
0.507964 3.013180 -7.958600
0.282314 2.816140 -8.354600
0.096488 2.668020 -8.669020
-0.637346 6.778330 -4.152711
-0.850235 6.456200 -4.375441
-0.664624 6.273310 -4.479670
-0.477972 6.037030 -4.619419
-0.333712 5.773050 -4.768518
-0.100237 5.590900 -4.842181
0.170225 5.445500 -4.900533
0.436164 5.337800 -4.962489
0.745008 5.299550 -4.945630
1.096216 5.263210 -4.934177
1.453286 5.210410 -4.950935
1.644194 4.408120 -5.782471
1.530576 4.076300 -6.239620
1.413403 3.774190 -6.719940
0.927127 3.059340 -8.208350
0.669306 2.853960 -8.599150
1.154987 3.270540 -7.740590
1.291853 3.511790 -7.221340
1.730506 4.772580 -5.357130
1.809216 5.151550 -4.982943
2.165202 5.117330 -5.010728
2.513420 5.143650 -5.003733
2.921287 5.322550 -4.822189
3.921884 5.078870 -5.010284
4.109654 5.229020 -4.824409
5.122891 5.128150 -4.956483
3.360314 5.226160 -4.897031
3.692707 5.137060 -4.955458
2.661976 5.653610 -4.556467
2.371525 5.828060 -4.437240
2.039449 5.980340 -4.351839
1.679213 6.086260 -4.301709
1.273118 6.150030 -4.303971
0.773889 6.124620 -4.355731
0.357573 6.317100 -4.305549
-0.072014 6.388040 -4.335818
-0.371648 6.619620 -4.229085
-0.085597 6.026030 -4.562981
0.398911 5.768850 -4.643966
0.558200 5.600000 -4.748088
0.832539 5.669430 -4.659501
1.193100 5.674700 -4.615998
1.556256 5.634720 -4.624397
1.906029 5.551560 -4.655606
2.223787 5.468520 -4.702179
2.467469 5.412900 -4.749608
0.146508 5.916210 -4.576001
-4.883758 4.620100 -6.649513
-4.464001 4.444130 -7.036158
-2.518033 2.100020 -9.751070
-2.351664 1.940700 -9.992220
-2.077904 2.159060 -9.471040
-1.886652 2.033630 -9.725940
-5.243119 7.109300 -4.989695
11.070390 9.638135 -1.760270
8.832150 7.841360 -5.021982
8.446406 8.099100 -4.635967
-3.054208 4.242290 -7.342689
-2.837059 4.030980 -7.440350
10.295360 8.764530 -3.591056
10.063550 8.509360 -3.899645
-0.908682 2.312720 -9.120180
-2.015546 5.956330 -4.699333
-2.218318 6.147360 -4.388963
-2.007382 7.478550 -3.091490
-1.972625 7.953140 -2.744212
-1.022517 6.218830 -4.550501
-3.639317 6.963700 -3.168868
-3.967740 7.005720 -3.236699
-1.668149 8.192550 -2.746135
-1.920916 8.326450 -2.523561
-14.068070 -8.320672 -25.353520
-13.942573 -8.346620 -23.202103
-13.844596 -8.290093 -21.056013
-13.692241 -8.174262 -18.924987
-13.483548 -8.065990 -16.806765
-13.243100 -7.897520 -14.699198
-12.959810 -7.771304 -12.590636
-12.697480 -7.651797 -10.470535
-12.471590 -7.233575 -8.374691
-14.068080 -8.320672 -6.205994
-9.255000 9.966000 -23.108040
-9.061933 9.480018 -21.400171
-8.772104 9.063638 -19.695372
-8.417892 8.707584 -18.001008
-8.121730 7.859822 -16.490722
-7.653044 7.140467 -14.962274
-7.453152 6.502875 -13.337193
-6.880499 5.748364 -11.845253
-6.785197 5.341961 -10.116245
-8.164562 8.880193 -7.405685
14.000000 7.000000 -26.000000
13.387420 7.454288 -23.836878
12.751410 7.886083 -21.700588
12.373430 8.072594 -19.506396
12.157870 8.155387 -17.316430
11.949620 8.218743 -15.138036
11.577470 8.028265 -12.975979
11.090600 7.453449 -10.872480
10.964630 7.359885 -8.607515
14.484820 8.936468 -6.398381
-13.833420 -6.801625 -8.012874
-12.954911 -7.855990 -7.934710
-6.906169 7.323416 -10.411578
-5.931403 3.866806 -11.428627
9.269470 5.602259 -9.588573
9.071590 5.670110 -10.361860
-12.906430 -8.123370 -22.186140
-11.211643 -7.395350 -19.563090
-10.152637 -6.843060 -16.914500
-9.117376 -6.813880 -14.563390
-8.160469 -6.883310 -12.432220
-7.258411 -7.133120 -10.290650
-6.462648 -6.812380 -7.869040
-5.554979 -5.834040 -5.288240
-4.464172 -4.662440 -2.509750
13.560887 6.653045 -23.930353
13.115840 6.314191 -21.860632
12.678270 5.971874 -19.789886
12.244360 5.625326 -17.719063
11.809400 5.278446 -15.648527
11.373930 4.933149 -13.577834
10.937300 4.589395 -11.507127
10.505750 4.244143 -9.435606
10.625150 4.054067 -7.304581
13.835026 6.753136 -23.398701
13.665992 6.504768 -20.797796
13.492740 6.256034 -18.197214
13.318160 6.006443 -15.596793
13.142930 5.753830 -12.996717
12.965460 5.498410 -10.397056
12.784610 5.243084 -7.797632
12.600860 4.989277 -5.198256
12.326000 5.000249 -2.596743
-7.212707 9.894470 -20.889578
-5.123669 9.667419 -18.937440
-3.577383 9.319799 -16.862610
-2.033251 9.118371 -15.135730
-0.567833 8.467188 -13.734150
0.943734 8.118203 -12.274970
2.688187 7.722012 -10.789368
4.528846 6.926685 -9.117192
6.189932 5.053260 -7.718130
-8.674027 8.947778 -20.773230
-7.068552 8.576420 -18.910400
-5.770661 8.348061 -17.062900
-4.669506 7.685763 -15.493490
-3.833108 7.656754 -13.828020
-3.096006 7.357647 -12.142370
-2.559691 7.067931 -10.207770
-1.826321 6.439682 -8.154140
-0.029346 6.242480 -6.446053
-5.251804 -6.086350 -1.752670
-3.595780 -5.338240 -2.226015
-4.923280 -5.649550 -1.607686
-5.755813 -8.698080 -2.908534
-2.967921 -7.866500 -3.854523
-3.170110 -7.971720 -3.790162
-6.540366 -7.199450 -2.172782
-5.005100 -5.354290 -2.071700
-5.610444 -6.138410 -1.871250
-3.768888 -4.647450 -3.143610
-5.588634 -6.819040 -2.307850
-3.570632 -4.800700 -2.825500
-3.333422 -7.735690 -3.599580
-5.597142 -6.655480 -2.444730
-4.551809 -4.351980 -2.813620
-3.772198 -4.504750 -3.103010
-5.877026 -4.894120 -2.597900
10.152790 4.253108 -7.743557
9.924810 4.107485 -7.578517
10.084810 4.435348 -7.555559
9.749610 3.937455 -7.901170
10.478170 3.492956 -7.370584
10.737900 4.029715 -7.252297
10.366460 3.720575 -7.390203
10.255070 4.357748 -7.526276
9.678820 4.134238 -7.893862
10.311150 3.708704 -7.134247
10.482980 4.177801 -7.089049
10.435800 3.963239 -7.146069
9.766620 4.045436 -7.275666
9.697380 4.110594 -7.502065
9.756180 4.135651 -7.671383
9.828480 3.360013 -7.292787
10.310600 3.567484 -7.022266
10.187850 3.669387 -6.910084
10.049280 3.779712 -6.980888
9.923550 3.905514 -7.025137
13.207710 4.680030 -2.173787
12.835350 5.011949 -2.353164
12.844860 4.777654 -2.376872
12.880920 4.528070 -2.404016
12.843650 4.421495 -2.417794
12.814650 4.327416 -2.411244
12.600140 5.041134 -2.537253
12.831050 5.059437 -2.584033
12.383630 4.591168 -2.613120
12.549810 4.426285 -2.601526
12.361430 5.064827 -2.750778
12.708740 4.945714 -2.788450
12.658030 4.791401 -2.817608
12.271260 4.507823 -2.871356
12.298850 4.389575 -2.851408
12.083930 4.961832 -3.066723
12.046580 4.779197 -3.121641
3.303801 6.120330 -6.262966
7.066406 4.939000 -8.548131
4.718822 5.534210 -6.763182
4.060263 5.568510 -6.911306
4.810714 7.409810 -6.341749
7.063300 6.565870 -7.576489
7.125676 5.765920 -8.027006
7.063771 7.088690 -7.330900
7.259405 6.743990 -7.497416
4.028487 5.528250 -6.549429
3.531009 5.984300 -6.599927
5.851783 5.394530 -7.241608
5.422064 6.896610 -6.665024
3.481115 6.669000 -6.646761
6.655163 6.703050 -7.164776
6.637759 5.691960 -7.343195
5.270319 8.310760 -6.436653
5.104721 7.470550 -6.452829
-1.374408 8.257440 -6.113949
-0.291479 5.951010 -5.858705
-1.286764 5.600810 -5.499348
-2.768873 7.702980 -5.773614
-0.608406 8.072290 -6.256181
-3.119782 7.061880 -5.880276
-0.045932 6.273860 -6.101382
-1.966367 8.110760 -6.153486
-1.502605 4.995770 -6.145345
-2.936973 6.270570 -6.260481
-2.924786 7.557070 -6.095291
-0.834334 7.632350 -6.202785
0.059324 6.207100 -6.404223
-1.911779 7.871860 -5.954187
-0.035925 6.160830 -6.190320
-2.737355 7.132440 -6.004693
-0.226464 6.900990 -6.533844
-1.200892 7.734220 -6.277535
-2.178556 5.143290 -6.365990
-2.101418 5.619120 -5.811257
-2.252628 7.456840 -6.033017
-0.174680 7.013560 -6.625687
-2.245646 6.798260 -5.778959
-2.057835 7.549420 -6.136247
-13.900310 -8.299221 -22.987483
-13.754670 -8.303538 -20.715696
-13.702990 -8.221024 -18.605365
-13.606930 -8.118125 -16.675617
-13.444660 -8.046818 -14.867903
-13.260040 -7.993892 -13.061710
-13.070160 -7.878032 -11.139660
-12.871000 -7.655747 -9.048260
-12.383970 -7.390928 -6.840400
-13.773500 -8.060799 -23.137179
-13.502150 -7.807958 -21.019689
-13.249790 -7.591323 -19.072792
-13.016810 -7.384662 -17.316729
-12.797790 -7.189990 -15.688942
-12.579530 -6.998886 -14.060629
-12.349570 -6.793140 -12.304063
-12.100080 -6.568117 -10.357750
-11.725840 -6.760150 -8.251230
-13.694470 -7.806929 -23.238544
-13.236770 -7.265486 -21.279984
-12.787490 -6.793247 -19.535506
-12.446080 -6.468362 -17.994246
-12.156150 -6.180314 -16.618545
-11.875480 -5.862788 -15.247423
-11.598570 -5.478935 -13.706786
-11.290580 -5.009320 -11.931200
-11.820962 -3.968960 -10.206790
-13.473486 -7.750728 -23.698178
-12.893560 -7.211651 -22.114968
-12.376220 -6.704386 -20.649621
-11.914510 -6.241260 -19.314207
-11.480380 -5.813740 -18.067330
-11.032790 -5.391490 -16.823426
-10.552381 -4.936980 -15.491651
-10.023030 -4.428530 -14.031010
-9.653437 -4.458220 -12.301960
-13.374933 -7.614356 -24.033620
-12.694540 -6.926903 -22.758630
-12.052908 -6.269304 -21.551330
-11.447351 -5.658358 -20.410130
-10.877157 -5.072790 -19.308340
-10.292664 -4.480870 -18.217490
-9.680835 -3.864210 -17.082740
-9.045366 -3.216640 -15.866780
-8.714758 -2.852760 -14.345460
-13.338927 -7.512548 -24.302540
-12.628040 -6.716310 -23.283360
-11.947880 -5.957950 -22.303350
-11.299467 -5.229220 -21.372400
-10.672761 -4.526170 -20.466900
-10.050658 -3.828490 -19.554120
-9.408114 -3.100760 -18.618310
-8.722120 -2.338120 -17.645750
-8.107606 -1.356570 -16.731860
-8.865755 9.868990 -20.942290
-8.518929 9.175020 -19.042450
-8.362167 8.391980 -17.449380
-7.933362 7.551510 -16.331480
-7.500045 6.561600 -15.755120
-6.905146 5.836180 -14.967880
-6.249526 5.194950 -13.828170
-5.990483 3.884870 -12.648250
-4.251192 2.897130 -12.189460
-8.950258 9.403731 -21.685542
-8.642708 8.879298 -20.318388
-8.374945 8.393591 -19.046544
-8.128279 7.933677 -17.889262
-7.899347 7.492947 -16.807025
-7.670020 7.049130 -15.726121
-7.421401 6.586228 -14.570449
-7.138053 6.099595 -13.302344
-7.000259 5.537021 -11.923375
-8.957721 9.500688 -21.575805
-8.700860 9.068909 -20.072213
-8.444470 8.658930 -18.639116
-8.203370 8.272733 -17.277248
-7.985940 7.892746 -15.961631
-7.761440 7.505833 -14.649222
-7.513677 7.096619 -13.295297
-7.250953 6.677597 -11.865976
-7.088727 6.321945 -10.329871
-8.872845 9.379200 -21.476883
-8.500797 8.770880 -19.941277
-8.124058 8.238850 -18.533726
-7.806314 7.735970 -17.271984
-7.525607 7.231700 -16.119484
-7.258232 6.726160 -14.964380
-6.930503 6.204260 -13.712963
-6.575043 5.639790 -12.312520
-6.298867 4.320280 -11.288392
-8.253977 8.432762 -21.947037
-8.284529 7.655139 -20.077000
-7.833135 6.829026 -18.577420
-7.250551 5.928073 -17.569440
-6.644986 5.185930 -16.762250
-6.083162 4.637989 -15.785940
-5.581907 4.151918 -14.489940
-5.170542 3.661607 -12.839070
-6.271301 3.768480 -11.142150
-9.071714 9.134581 -21.150730
-8.227081 8.119080 -19.677250
-7.722601 7.375213 -18.237740
-6.984635 6.891199 -17.205540
-6.617872 6.313990 -16.347350
-6.598185 5.625462 -15.493120
-6.087426 4.802051 -14.541600
-5.341743 4.001912 -13.244000
-3.831669 3.224848 -12.228450
-8.292377 8.647520 -21.870060
-7.340423 7.434400 -20.755600
-6.592402 6.410290 -19.717930
-6.008949 5.664910 -18.793680
-5.514286 5.086250 -18.023630
-4.984592 4.515210 -17.271420
-4.337798 3.802300 -16.363850
-3.509252 2.933660 -15.248450
-3.839107 1.815730 -13.744890
12.706988 5.950219 -24.733169
11.036460 5.178204 -23.737130
9.348580 4.353561 -22.815270
8.109890 2.881058 -21.992990
6.657740 1.563075 -21.262950
4.890160 0.867742 -20.384920
3.186260 0.248539 -19.339890
1.623890 -0.715564 -18.335770
2.643034 -2.540720 -18.241780
13.007340 6.704106 -24.848030
12.020980 6.401643 -23.692376
11.035250 6.102860 -22.535220
10.042640 5.804446 -21.383860
9.052020 5.503012 -20.231580
8.063270 5.205879 -19.076580
7.069540 4.909806 -17.925580
6.079060 4.611482 -16.772380
4.992840 4.514838 -15.673920
13.284625 6.734395 -24.439619
12.553208 6.489058 -22.906439
11.845880 6.238974 -21.400590
11.156210 5.992359 -19.924577
10.475540 5.747960 -18.468307
9.798510 5.503891 -17.010289
9.114370 5.264757 -15.530480
8.399930 5.011472 -14.028530
7.683670 4.977595 -12.471550
13.593024 6.673821 -24.157329
13.190310 6.355949 -22.312272
12.793980 6.039446 -20.465607
12.388040 5.712051 -18.622926
11.986640 5.386146 -16.778983
11.585240 5.061701 -14.934783
11.182270 4.732116 -13.091846
10.781650 4.410772 -11.246936
10.736220 3.600877 -9.513667
13.509980 6.882061 -24.286341
13.031560 6.762152 -22.569533
12.549790 6.630972 -20.854498
12.064700 6.504750 -19.140020
11.566890 6.386413 -17.428635
11.070210 6.264495 -15.717172
10.572440 6.131802 -14.006819
10.061780 6.001828 -12.300071
9.048910 6.143349 -10.836025
13.550028 6.979413 -24.320003
13.099541 6.961922 -22.640109
12.648384 6.945251 -20.960387
12.199053 6.924488 -19.280220
11.747090 6.907555 -17.600716
11.297570 6.891972 -15.920546
10.841660 6.874169 -14.242118
10.391880 6.857250 -12.562029
9.812010 6.648440 -10.939273
-13.039100 -7.861093 -6.914488
-12.638070 -8.158643 -6.992074
-13.149840 -7.635013 -6.947502
-13.363722 -7.509553 -6.990514
-13.517659 -7.871268 -7.022385
-12.489620 -7.024053 -6.811657
-12.558750 -7.273148 -6.767134
-12.807870 -8.253683 -6.804677
-12.580970 -6.400688 -7.098785
-12.444800 -8.081298 -6.554801
-13.114260 -7.436368 -6.521515
-12.769440 -8.102333 -6.555657
-12.581050 -6.789713 -6.688639
-13.706703 -7.069813 -6.722622
-12.641520 -8.269833 -6.363427
-12.406610 -7.473628 -6.342374
-12.059510 -7.545538 -6.431531
-12.208782 -6.429160 -8.585720
-12.149110 -6.338130 -8.562940
-11.783537 -5.819760 -8.687370
-12.033768 -6.492460 -8.387350
-12.234813 -6.731710 -8.391020
-12.190558 -6.710710 -8.361900
-12.434098 -6.358160 -8.351580
-12.388982 -5.835290 -8.410880
-12.010873 -6.385260 -8.194070
-12.197801 -6.765720 -8.192450
-11.381060 -6.532630 -8.241370
-11.110370 -5.983740 -8.380990
-11.882842 -6.420990 -7.997760
-11.321970 -6.424980 -8.117800
-11.866867 -5.647360 -8.159380
-12.059790 -5.681710 -8.096270
-11.637044 -5.548400 -8.147670
-11.714941 -6.241420 -7.831850
-11.629193 -6.088090 -7.853310
-11.558372 -5.950270 -7.863530
-11.154275 -4.414480 -10.355800
-10.660956 -3.966450 -10.656450
-10.907892 -4.852930 -10.118490
-11.073621 -4.598090 -10.147210
-11.009041 -3.876720 -10.447830
-10.508162 -3.637980 -10.782610
-12.085730 -4.011700 -10.345110
-11.959050 -4.834330 -9.913760
-10.918909 -4.710540 -9.941560
-11.177926 -5.210740 -9.857660
-11.969270 -3.666670 -10.302040
-10.630305 -5.881860 -9.908300
-10.747940 -4.559030 -9.795120
-11.437152 -4.299830 -9.761760
-10.897948 -3.290780 -10.390700
-10.507909 -5.856930 -9.818420
-11.741730 -3.010620 -10.541890
-10.139789 -5.019120 -9.723500
-11.531130 -4.656990 -9.426530
-11.664650 -3.347850 -9.961660
-9.999873 -4.780160 -12.667380
-9.606245 -3.127040 -13.202850
-9.143580 -4.790110 -12.536060
-9.476274 -3.708960 -13.032120
-10.110612 -3.533020 -12.804570
-8.482147 -3.927340 -13.517070
-9.814759 -3.955480 -12.231140
-8.008634 -4.252510 -13.815580
-9.878886 -4.309360 -12.567020
-9.998936 -4.355540 -12.393030
-9.777017 -3.871340 -12.144940
-9.917389 -2.795890 -12.617950
-9.585370 -3.994780 -12.569360
-8.981489 -4.385050 -12.629030
-8.609601 -3.923880 -12.817170
-8.936029 -2.960540 -12.991550
-8.231037 -3.157250 -13.435590
-9.447945 -3.876230 -12.369230
-9.249080 -3.681840 -12.253250
-8.981626 -3.520190 -12.263090
-8.734866 -2.704810 -14.422200
-8.815697 -3.115650 -14.463070
-7.848762 -3.054340 -15.388520
-8.833827 -2.913000 -14.234730
-8.726159 -2.496450 -14.572150
-7.940410 -2.584160 -15.330500
-8.188706 -2.324790 -15.556770
-8.416267 -2.772610 -14.207640
-7.912323 -2.546860 -15.182210
-8.325800 -2.160060 -15.352310
-8.159529 -2.277690 -14.737330
-8.554061 -2.093690 -14.854370
-8.271767 -2.302590 -14.973140
-8.333636 -2.568320 -14.254280
-8.252258 -2.410380 -14.286400
-8.229642 -2.355840 -14.497280
-8.205856 -2.304500 -14.699650
-8.905632 -1.653490 -16.437140
-8.815088 -1.630330 -16.627480
-8.511835 -1.575200 -16.869580
-7.678826 -2.069640 -16.367630
-8.680355 -1.401410 -16.463430
-8.201028 -1.897340 -16.465340
-8.176197 -1.538800 -16.869440
-8.272204 -1.489060 -17.010790
-8.640685 -1.410250 -16.128850
-8.432578 -2.106700 -16.060040
-8.402892 -1.339780 -16.747230
-8.112418 -1.475050 -16.893940
-8.029017 -2.140460 -15.894780
-7.736711 -1.841140 -16.281160
-8.099386 -1.256660 -16.599890
-8.135141 -1.438950 -16.569640
-7.988396 -1.465410 -16.753240
-7.900489 -1.535700 -16.150840
-7.892369 -1.476840 -16.345830
-7.889463 -1.447040 -16.542140
-7.883174 -1.446710 -16.677360
-5.437778 4.075720 -10.952340
-6.919395 3.504000 -10.969340
-6.397038 1.894690 -11.557160
-6.428781 5.396250 -10.717430
-6.717175 2.240270 -10.859460
-6.797603 4.126730 -10.474850
-4.176690 3.894690 -11.536270
-4.684034 2.516380 -12.201660
-6.180820 2.343920 -11.801430
-5.248161 2.210110 -11.552490
-4.297437 3.221390 -11.976110
-6.647052 5.345958 -11.756049
-6.617634 5.266538 -12.021045
-6.964662 5.340813 -11.917807
-7.037251 5.505240 -11.705292
-7.005790 5.447693 -11.614034
-6.819850 5.388003 -11.781126
-6.828911 5.502478 -11.487910
-6.724506 5.386468 -11.641957
-7.280297 6.112315 -10.628137
-7.264511 6.277524 -10.451713
-6.843707 6.826294 -10.162641
-6.319949 5.797467 -10.446659
-6.914967 6.524630 -9.986460
-6.954645 6.403238 -10.154900
-7.141589 6.119951 -10.340384
-7.129263 6.099978 -10.451753
-6.791566 6.202568 -9.923452
-6.623877 6.179623 -10.134856
-7.061259 6.157393 -10.177120
-6.416242 4.412140 -11.028290
-6.493494 5.716340 -10.628750
-6.900453 5.864750 -10.790940
-5.499205 5.370090 -11.336420
-7.514956 4.553000 -11.432059
-7.281404 5.973780 -10.942780
-6.822478 4.734800 -10.732680
-6.065344 4.975690 -10.533400
-6.085493 4.939890 -10.570860
-6.772774 4.337930 -11.036911
-5.666416 4.731900 -11.153110
-6.143845 6.116480 -10.801330
-6.327400 4.360960 -11.065111
-6.254678 5.825670 -10.446960
-6.439029 4.985440 -10.408550
-7.294189 4.876360 -10.746966
-6.834584 5.813980 -10.364570
-5.971225 5.349920 -10.337090
-6.139453 6.081840 -10.460890
-4.988872 1.931560 -12.516110
-4.354849 4.239650 -11.191300
-4.279142 2.023150 -11.888640
-6.913192 3.683820 -11.389980
-6.731405 2.420960 -11.426740
-3.635078 4.770070 -11.212070
-4.434237 5.012380 -11.134530
-5.354449 1.930320 -12.036310
-4.151914 3.720520 -11.420170
-3.293295 3.767840 -11.416160
-5.621166 2.276730 -11.318080
-5.804132 2.495550 -11.458740
-3.992846 2.596450 -12.114780
-5.444354 2.784450 -10.958430
-3.805607 2.885210 -11.733270
-3.889771 2.802661 -13.333780
-4.074872 2.622766 -13.233980
-5.647395 2.707841 -11.911180
-6.001736 2.618416 -11.952890
-5.111978 2.107736 -13.712030
-4.700035 2.763376 -11.911680
-3.989535 2.638491 -13.649890
-4.731971 2.563021 -11.993460
-5.145127 3.501431 -11.149660
-3.497521 3.131066 -12.723330
-5.062858 2.415811 -11.900410
-5.091145 1.873116 -13.420860
-5.000992 3.247876 -11.170890
-4.027179 2.304661 -13.749210
-3.316533 3.102721 -13.434910
-4.097321 3.654391 -11.280430
-2.417625 2.023830 -14.168750
-2.530064 2.185980 -13.934830
-2.982378 1.231540 -14.868670
-4.157318 1.382950 -14.439780
-3.854896 2.827670 -13.321720
-1.806692 2.183860 -14.259690
-2.425598 2.799410 -13.560040
-3.210825 1.948060 -13.581130
-2.549595 1.677140 -14.113350
-3.966334 0.652100 -14.860150
-4.281005 1.019400 -14.436120
-1.925713 2.512870 -13.908910
-2.723200 2.839510 -13.276730
-2.260619 1.366190 -14.509200
-2.903483 1.701930 -13.632490
-3.074365 3.080830 -13.011630
-2.987326 0.879210 -14.211290
1.614583 -3.164900 -18.734580
-0.411902 -1.885440 -18.219430
0.693428 -0.523610 -16.340200
0.037307 -0.778890 -17.018900
0.519300 -1.013960 -16.804810
3.005061 -2.252740 -17.135940
1.203017 -2.837480 -19.023210
2.551198 -1.857780 -16.774280
0.412741 -2.164660 -19.041380
-0.012670 -1.553050 -18.767430
2.023990 -2.426100 -18.168970
1.619472 -3.119280 -18.631480
1.775586 -1.023420 -16.048440
2.345228 -1.282390 -16.334560
-0.223932 -1.387720 -18.059450
2.355780 -1.972870 -17.138500
1.504210 -2.451770 -18.751400
0.246297 -1.069920 -16.471370
0.005078 -1.140700 -16.843790
2.954239 -1.914230 -17.155670
0.461133 -2.341440 -18.776290
0.717940 -2.351180 -18.918130
1.059610 -0.944310 -16.546000
0.096000 -0.894050 -17.334270
1.025570 -2.376090 -18.460810
2.560226 -2.468800 -17.448600
1.834162 -0.967370 -16.269820
0.699680 -2.477140 -18.550010
1.920150 -2.603320 -18.292370
1.424070 -2.749240 -18.144560
0.073540 -0.900800 -17.143330
0.557060 -2.241540 -18.346170
4.665590 4.237992 -15.795150
4.897130 4.231649 -15.695130
5.181440 4.555666 -15.599630
5.296100 4.617462 -15.558820
4.629080 4.159687 -15.609540
4.982210 4.169760 -15.398050
5.046330 4.152009 -15.462920
5.246250 4.538284 -15.327490
5.210920 4.471179 -15.388480
4.730490 4.148688 -15.388440
4.872220 4.215581 -15.342330
5.014530 4.253785 -15.293470
7.318160 4.605719 -12.784080
7.229640 4.870615 -12.807610
7.908500 4.437394 -12.412490
8.102970 4.524724 -12.244240
7.339110 4.660919 -12.537520
7.065340 4.495776 -12.833440
7.703490 4.196846 -12.470510
7.373530 4.494092 -12.457970
7.874020 4.705618 -12.094750
7.408730 4.697720 -12.277580
7.537850 4.717979 -12.179930
7.664920 4.735463 -12.067930
10.856320 4.263054 -9.657159
10.556790 3.880163 -9.593507
11.043660 3.582661 -9.357867
10.667820 3.863711 -9.078914
9.976290 4.303036 -9.678991
10.007730 4.064597 -9.541931
10.256120 4.425414 -9.258910
10.106290 4.167850 -9.152151
10.558710 3.747188 -8.992056
10.180350 4.225265 -9.421840
10.261860 4.139118 -9.273044
10.335810 4.035270 -9.126121
10.418880 3.914127 -8.972084
9.398740 5.226446 -10.916453
9.599990 5.875927 -10.739006
9.527140 6.078699 -10.821777
9.502170 6.351478 -10.877308
9.814900 5.700290 -10.696643
9.317180 5.233931 -10.734458
9.530220 6.087743 -10.550562
9.477240 5.423527 -10.736056
9.936870 6.171577 -10.548900
9.255120 5.772628 -10.615635
9.530430 5.554301 -10.341150
8.934670 5.631396 -10.657720
9.125850 6.243349 -10.565386
9.322160 6.422831 -10.562064
9.350360 6.084066 -10.315249
9.308900 5.904063 -10.210845
9.290570 5.680329 -10.230354
10.421180 6.783150 -10.628722
10.193730 6.732940 -10.748197
10.250810 7.021940 -10.920262
9.789110 6.634410 -11.108935
9.733140 6.726090 -10.908348
9.801830 7.024530 -10.815992
10.027120 6.995050 -10.681048
9.907780 6.827710 -10.618616
10.306740 6.873850 -10.464211
9.754430 6.934840 -10.607335
9.909640 6.977700 -10.505139
10.055950 6.981430 -10.406072
12.267477 6.664867 -24.325959
10.460656 6.347965 -22.951820
9.012307 6.030500 -21.523880
7.731306 5.758544 -20.247470
6.449133 5.383512 -19.148940
5.148329 4.757763 -18.026220
3.563128 4.203108 -16.835850
1.589858 3.221400 -16.207510
12.686179 6.595753 -24.183170
11.428480 6.207031 -22.442190
10.267375 5.843984 -20.820310
9.173290 5.520701 -19.325540
8.119996 5.186182 -17.880700
7.036343 4.847249 -16.381810
5.872587 4.494294 -14.759600
5.214191 3.820230 -12.797170
13.082853 6.631927 -24.168250
12.211660 6.244450 -22.436680
11.418617 5.901670 -20.852180
10.695396 5.605420 -19.411930
9.993715 5.325790 -18.037640
9.251010 5.036290 -16.605960
8.437228 4.713540 -15.027780
7.265830 4.828630 -13.440380
13.533140 6.664452 -23.573670
13.049650 6.447606 -21.277200
12.618219 6.270768 -19.198440
12.158045 6.134264 -17.350520
11.751267 5.975191 -15.589390
11.329955 5.780637 -13.737400
10.797837 5.605096 -11.682020
8.595940 5.840780 -10.876340
11.672460 6.533704 -24.001909
9.473470 6.111004 -21.998293
7.406860 5.653100 -20.092720
5.431223 5.240090 -18.295030
3.455454 4.875020 -16.577480
1.411505 4.526890 -14.843565
-0.747046 4.167620 -13.020548
-3.547219 3.928130 -11.959031
13.131143 6.919443 -23.189984
12.337640 7.002590 -20.477410
11.646010 7.145710 -17.931820
11.070860 7.146150 -15.532890
10.359210 7.310980 -13.252680
9.821420 7.472600 -10.850540
9.183990 7.920710 -8.326300
8.526830 9.204520 -5.894418
13.480560 7.061021 -23.766698
12.973300 7.123478 -21.544040
12.473790 7.193129 -19.340515
11.975890 7.262584 -17.154958
11.472420 7.328741 -14.977862
10.971600 7.393477 -12.792817
10.471350 7.466114 -10.589558
9.848220 7.263147 -8.406700
13.266430 6.685616 -23.998316
12.562460 6.379682 -22.093151
11.911310 6.096666 -20.342796
11.326080 5.835824 -18.735053
10.758840 5.590514 -17.189942
10.163410 5.330494 -15.585815
9.513730 5.042806 -13.835667
9.061250 4.260290 -11.992970
13.303128 6.709436 -23.864426
12.616991 6.455975 -21.777113
11.963487 6.227710 -19.765455
11.381620 5.984336 -17.814475
10.773980 5.721478 -15.906939
10.134960 5.450264 -13.977635
9.477250 5.186044 -11.971760
8.522200 5.626013 -10.027060
11.619590 6.309539 -24.195866
9.168020 5.697064 -22.734390
7.056079 5.037316 -21.223670
5.092212 4.510932 -19.858880
3.268902 4.080764 -18.437440
1.485007 3.761496 -16.790540
-0.406008 3.253676 -14.961865
-2.770085 3.357855 -13.252937
-13.693019 -7.792538 -23.252085
-13.330351 -7.342327 -21.169938
-12.932933 -6.930958 -19.148057
-12.522020 -6.537518 -17.181389
-12.108180 -6.117224 -15.243554
-11.727510 -5.659321 -13.284752
-11.360890 -5.203761 -11.266531
-11.780200 -4.382400 -9.314527
-13.367522 -7.784975 -23.817309
-12.749619 -7.339461 -22.270833
-12.176278 -6.948334 -20.775432
-11.620188 -6.447265 -19.384663
-11.054960 -5.886761 -18.053243
-10.447810 -5.346347 -16.699035
-9.837000 -4.796438 -15.269891
-10.069640 -4.607529 -13.572492
-13.110641 -7.949356 -23.855415
-12.304587 -7.346703 -22.455015
-11.686976 -6.653565 -21.184429
-11.096358 -6.122829 -19.997816
-10.452098 -5.576121 -18.924630
-9.681950 -4.755837 -18.045657
-8.752470 -3.936872 -17.075287
-7.863220 -4.071076 -15.603968
-12.072552 -7.199408 -24.629850
-10.189130 -6.278724 -23.718160
-8.602416 -5.606190 -22.520900
-7.538984 -4.637570 -21.251700
-6.765765 -3.393370 -20.134410
-5.692212 -2.431420 -18.868676
-4.455015 -1.896960 -17.260210
-4.196230 -0.042320 -15.948940
-13.714506 -7.842550 -23.207505
-13.416489 -7.374098 -21.089734
-13.080757 -6.929408 -19.033362
-12.717085 -6.458428 -17.042978
-12.418803 -6.020876 -15.056266
-12.166147 -5.610401 -13.035526
-11.972553 -5.282717 -10.939276
-12.197680 -5.092678 -8.770474
-13.597315 -7.791446 -23.446806
-13.127270 -7.268475 -21.566420
-12.665027 -6.758276 -19.724566
-12.211627 -6.261790 -17.916215
-11.769937 -5.761461 -16.121814
-11.323030 -5.262813 -14.312443
-10.851680 -4.756358 -12.471876
-10.963150 -4.314772 -10.525500
-13.645281 -7.852160 -23.571049
-13.193650 -7.428089 -21.831532
-12.793010 -7.008990 -20.152376
-12.346030 -6.553261 -18.563370
-11.822670 -6.074102 -17.033440
-11.291420 -5.566723 -15.486595
-10.743490 -5.063173 -13.873542
-9.907270 -4.831798 -12.243745
-13.326480 -7.696456 -23.974185
-12.637640 -7.099958 -22.615656
-11.998750 -6.540057 -21.311997
-11.397280 -6.009100 -20.065592
-10.809400 -5.486173 -18.845073
-10.196790 -4.949335 -17.606639
-9.552080 -4.386022 -16.307322
-8.833780 -3.706570 -15.007216
-13.989682 -8.242398 -22.672550
-13.916271 -8.159394 -19.991591
-13.850721 -8.071433 -17.310576
-13.790144 -7.985333 -14.629384
-13.731522 -7.905282 -11.947960
-13.674354 -7.824500 -9.266530
-13.614638 -7.745000 -6.585114
-13.255697 -7.731793 -3.933549
-13.919271 -8.175111 -22.818389
-13.762254 -8.036650 -20.283365
-13.606134 -7.912688 -17.747526
-13.451064 -7.785617 -15.211777
-13.293740 -7.662242 -12.675994
-13.141373 -7.543605 -10.139672
-12.991780 -7.419194 -7.603467
-13.104365 -7.917224 -5.116716
-13.875005 -8.144161 -23.008745
-13.675641 -7.974487 -20.663993
-13.477086 -7.817461 -18.318291
-13.283835 -7.674652 -15.971227
-13.084154 -7.539643 -13.624250
-12.888820 -7.404975 -11.276886
-12.691770 -7.277132 -8.929283
-13.142895 -7.495671 -6.627373
-13.843677 -8.146432 -23.078084
-13.607021 -7.978231 -20.809277
-13.355770 -7.811165 -18.550966
-13.099800 -7.637613 -16.301612
-12.850480 -7.455117 -14.055377
-12.619560 -7.255610 -11.805476
-12.394140 -7.057807 -9.546915
-11.756070 -6.783411 -7.370650
-13.373106 -7.642966 -23.308944
-12.741394 -6.496384 -21.581340
-11.886633 -5.324244 -20.187180
-11.110120 -4.356600 -18.795310
-10.577990 -3.576983 -17.259120
-9.903250 -2.603715 -15.818950
-9.282220 -1.679833 -14.142923
-9.927170 -0.237789 -12.658813
-8.911300 8.751060 -21.867503
-8.577090 7.535350 -20.785683
-8.297720 6.451790 -19.818145
-8.083190 5.508030 -18.952797
-7.880840 4.619244 -18.142800
-7.626990 3.684088 -17.278760
-7.319200 2.636232 -16.281000
-6.899800 1.282605 -15.414990
-8.696401 8.776800 -21.609434
-8.158827 7.693790 -20.184338
-7.711750 6.747290 -18.894827
-7.365640 5.922330 -17.749144
-7.053130 5.164380 -16.660210
-6.692020 4.347100 -15.513670
-6.255880 3.354540 -14.255420
-5.559733 1.965456 -13.217670
-7.955138 8.748809 -21.810376
-6.677761 7.690997 -20.609780
-5.605525 6.741571 -19.549040
-4.728310 5.953986 -18.603950
-3.944746 5.229286 -17.714560
-3.126991 4.439281 -16.719497
-2.151986 3.511500 -15.551222
-0.687773 2.098340 -15.775890
-9.016901 9.745883 -20.779246
-8.782047 9.535344 -18.454948
-8.534116 9.324280 -16.140832
-8.286289 9.088280 -13.836850
-8.039906 8.830030 -11.538177
-7.789234 8.564580 -9.237719
-7.528165 8.301327 -6.930400
-7.659161 8.254872 -4.590012
-8.999766 9.624806 -20.908696
-8.744661 9.281759 -18.709624
-8.489121 8.937168 -16.510844
-8.233158 8.591683 -14.312255
-7.974638 8.244405 -12.114247
-7.712516 7.896236 -9.916803
-7.448297 7.549227 -7.719431
-6.982268 7.522608 -5.532016
-8.916513 9.532887 -21.074368
-8.577331 9.098843 -19.041010
-8.239177 8.670280 -17.006320
-7.905981 8.242790 -14.970585
-7.578864 7.820071 -12.932870
-7.252897 7.401381 -10.894139
-6.925227 6.982711 -8.855674
-6.433096 6.764801 -6.821364
-9.072290 9.400298 -20.923508
-8.859921 8.773685 -18.814207
-8.273591 8.286721 -16.829174
-7.683567 7.623519 -14.982072
-6.949228 7.329452 -13.125459
-6.130462 6.910480 -11.294115
-5.472861 6.126544 -9.430170
-5.867528 7.543116 -7.779572
-8.876074 9.667614 -21.112431
-8.503789 9.389849 -19.119242
-8.123580 9.107137 -17.138491
-7.753316 8.825161 -15.164790
-7.402550 8.534063 -13.192424
-7.042178 8.238593 -11.218863
-6.674156 7.953245 -9.236190
-6.117173 8.007461 -7.268562
-8.894236 9.505159 -21.288925
-8.553399 9.051016 -19.471580
-8.205520 8.605527 -17.664635
-7.841669 8.173315 -15.867537
-7.495738 7.760790 -14.066190
-7.153148 7.332532 -12.263968
-6.790439 6.880956 -10.461458
-6.251034 6.075095 -8.823269
-8.887000 9.470530 -21.429250
-8.517694 8.969678 -19.752334
-8.149804 8.474978 -18.073294
-7.782969 7.977457 -16.394855
-7.414912 7.477927 -14.717280
-7.046600 6.977376 -13.040065
-6.680548 6.476915 -11.362331
-6.868597 6.042875 -9.640526
-8.755580 8.735138 -21.671873
-8.296480 7.587895 -20.322508
-7.906040 6.546185 -19.149588
-7.594330 5.633643 -18.130904
-7.338380 4.794671 -17.159741
-7.072030 3.866378 -16.142441
-6.782850 2.732064 -15.027512
-6.436240 1.491055 -13.729465
-8.475080 8.487059 -21.714010
-7.735980 7.525811 -20.079910
-7.393540 6.643202 -18.554242
-7.123170 5.860916 -17.237915
-6.753320 5.171772 -16.018183
-6.155250 4.395331 -14.811005
-5.381690 3.398483 -13.533590
-4.595100 3.476884 -11.658617
-8.862907 8.929420 -21.127165
-8.457733 7.623420 -19.488876
-8.470395 6.164690 -18.260410
-8.295560 5.624820 -16.676401
-7.870150 5.226450 -15.202269
-7.546026 4.289158 -13.843028
-7.555124 3.152644 -12.311545
-6.851430 4.235165 -10.612499
-9.008020 8.959154 -21.780744
-8.731200 7.893257 -20.506520
-8.320290 6.805400 -19.288276
-8.182000 5.613236 -18.106754
-8.244190 4.265291 -17.099018
-8.137970 3.030651 -15.958541
-7.848800 2.191219 -14.527442
-7.960900 0.532353 -14.260063
-8.878584 9.275830 -21.380927
-8.480394 8.520430 -19.717951
-8.098915 7.805280 -18.082396
-7.668842 7.146710 -16.479199
-7.242070 6.530320 -14.875973
-6.829198 5.876300 -13.266411
-6.426871 5.183260 -11.626338
-5.357746 5.088946 -10.097289
2.902640 2.350840 -15.697060
1.559664 4.537880 -15.843700
1.402732 3.622970 -16.379970
1.414420 3.785730 -16.013760
1.699748 3.139580 -15.724250
1.935580 2.928750 -15.469310
1.907275 4.032850 -15.096160
2.057732 2.586900 -16.046110
2.294395 4.818140 -14.952230
1.977958 4.914770 -15.244050
2.071917 3.162630 -15.053880
2.147071 2.636310 -15.537930
1.440056 3.637390 -15.785020
1.750528 2.878130 -15.904670
3.211099 4.369610 -14.412620
2.190200 3.227390 -14.836380
2.615525 2.707270 -15.011200
2.858419 3.688210 -14.497540
2.194604 4.313500 -14.727320
2.679103 3.618050 -14.468860
4.295482 3.849380 -13.783260
5.423474 3.854790 -12.870120
4.865001 5.215850 -13.022810
5.024176 3.681610 -13.159560
4.165482 4.636090 -13.634480
5.061493 5.007280 -12.863110
4.924450 5.036820 -12.843910
4.729175 4.744860 -12.791520
4.819182 4.133600 -12.988140
4.507946 3.549570 -13.387760
4.913309 4.806260 -12.693880
5.255463 4.379030 -12.481500
4.346566 4.002160 -13.231730
4.726085 3.564440 -13.031720
4.580376 4.634180 -12.810340
4.684849 3.988590 -12.697190
4.887183 4.226580 -12.548600
4.347687 4.008470 -12.965080
4.447989 4.066110 -12.785230
4.570004 4.122730 -12.589540
8.220247 4.101970 -13.368510
7.937417 4.058200 -13.597410
7.663998 4.126010 -13.634910
7.811466 4.433290 -13.416750
8.136102 4.409760 -13.239620
7.510601 4.240530 -13.376290
7.937256 3.976970 -13.142490
7.315973 4.525070 -13.287400
7.408307 4.282780 -13.512720
7.769520 4.012260 -13.340630
7.232057 4.261520 -13.330830
7.513212 3.913000 -13.140580
7.953583 4.885660 -12.866520
7.148083 4.753010 -13.105410
7.146630 4.530010 -12.984740
7.235877 4.640370 -12.999640
7.028672 4.366880 -13.447500
7.428707 4.727030 -12.825920
10.432614 3.402500 -10.456910
9.114077 3.940610 -11.445120
10.566839 3.592340 -10.779410
9.522319 5.948040 -10.089990
9.944171 3.692290 -10.924390
9.693739 6.695580 -9.858720
9.389955 3.612520 -10.879190
11.313369 5.402610 -8.990480
10.116641 4.183140 -10.310050
9.990241 3.939780 -10.398970
10.970091 4.920330 -9.177020
11.168620 5.454140 -8.923110
9.533432 5.672340 -9.977760
9.493335 4.267450 -10.360080
9.652367 6.314050 -9.619140
10.109779 6.608130 -9.331830
10.877485 5.061680 -8.900770
9.159585 5.274140 -10.049120
9.478312 5.864530 -9.556720
8.596504 5.153970 -10.185830
-2.669865 3.517890 -11.110300
-3.299828 3.339230 -11.921274
-2.664178 3.200550 -10.603160
-2.921058 2.907370 -10.688060
-2.573826 3.924990 -10.249990
-3.351012 3.411630 -11.413953
-2.813938 4.422570 -10.907180
-2.843432 3.347640 -11.370420
-2.735400 3.608170 -11.392790
-3.422798 4.281650 -11.171187
-3.225543 4.172820 -11.172945
-2.904378 4.148660 -11.079406
-2.651735 3.861070 -11.147258
8.631153 9.899600 -5.686870
7.567711 7.325300 -5.720602
7.924761 9.648920 -6.034642
8.730314 8.930210 -5.325494
9.268875 7.188490 -5.970372
8.530067 9.889240 -6.239496
7.143095 8.806050 -6.440201
8.158614 9.081080 -5.754714
7.060948 8.221180 -6.080947
9.612709 7.766060 -5.634841
8.120799 6.805160 -6.128744
7.328880 7.693640 -6.192566
7.821890 7.571840 -5.734699
7.413158 8.811600 -6.688321
9.126551 8.815280 -5.913325
7.997818 7.390830 -5.952067
7.545921 7.428350 -6.405644
8.753617 8.260070 -5.673370
8.683362 8.683920 -5.921391
10.431750 7.050339 -8.454872
10.448170 7.525611 -8.042344
10.447590 7.558370 -8.230826
10.432140 7.050199 -8.454891
9.930970 7.698586 -8.624544
9.828830 7.758674 -8.477965
10.497940 8.045762 -8.435199
10.448170 7.525611 -8.042344
10.447590 7.558370 -8.230826
9.678100 7.415986 -8.607317
9.634950 7.451225 -8.446152
9.734360 7.515193 -8.225466
9.680580 7.349848 -8.290895
9.847360 7.823151 -8.295136
10.106840 7.122552 -8.253057
10.265790 8.106648 -8.137177
10.159290 7.684241 -7.917628
9.814040 7.535357 -8.013811
9.980800 7.629798 -8.011197
9.830350 7.539022 -8.147248
9.081090 4.298030 -12.322570
9.175130 4.361440 -12.279190
8.708930 4.211630 -12.520110
9.081810 4.293720 -12.056950
8.382270 4.828170 -12.281030
8.456670 4.525870 -12.322620
8.992050 4.495080 -12.061320
9.005950 4.639500 -11.978980
7.890330 5.440970 -12.468740
9.114730 4.076480 -11.994460
8.516010 4.890270 -11.976050
8.861180 4.687050 -11.810880
7.786239 5.574920 -12.345630
7.875430 5.295230 -12.243630
9.044340 4.943980 -11.614130
8.717570 5.102380 -11.681530
8.690000 4.823150 -11.648590
8.396024 5.352550 -11.658910
8.835050 4.604750 -11.573960
8.468790 4.810120 -11.613770
8.177750 4.490702 -10.727920
8.857310 3.995805 -10.598420
10.171310 4.472574 -10.316990
8.126330 4.306631 -10.648070
9.621350 5.335591 -9.904240
8.184740 5.233570 -10.349090
9.642940 5.600734 -9.932630
9.875540 5.482447 -9.903520
7.933550 4.770809 -10.398990
9.077240 4.149969 -10.027370
9.103290 5.650799 -9.807470
9.059030 5.625673 -9.778500
8.171100 4.659571 -10.015880
8.119340 4.800412 -10.022100
9.089060 4.354292 -9.748840
8.472850 5.176830 -9.786860
9.433120 5.268425 -9.550140
8.609080 4.887137 -9.545090
8.782790 4.861649 -9.510330
8.905680 4.823643 -9.497110
8.981290 4.730824 -9.500670
-3.494723 2.787833 -14.212644
-3.444469 3.361493 -13.809629
-2.898042 1.554103 -13.635011
-2.867013 2.183223 -13.183883
-2.165067 3.160598 -12.334280
-2.976900 3.454468 -13.213072
-2.910895 3.471828 -13.189850
-2.115693 1.062688 -13.712775
-2.056204 2.974973 -12.348260
-1.931491 2.056828 -12.617180
-1.513145 1.728403 -12.694150
-1.850619 1.085328 -13.643365
-2.622848 3.009168 -12.963724
-2.689331 3.109868 -13.129691
-1.365806 2.336138 -12.411110
-1.318222 2.593628 -12.364930
-1.475109 1.231538 -13.350990
-1.826299 2.416608 -12.662550
-2.257755 2.459848 -13.059426
-1.736210 3.284563 -12.586220
-11.669280 -4.493691 -9.601485
-10.624150 -4.529432 -9.518640
-11.660560 -4.330376 -9.123056
-12.338220 -5.764773 -9.048628
-11.128670 -5.022144 -9.377280
-10.785850 -4.343137 -9.439715
-11.632670 -4.472927 -9.128904
-11.090250 -5.710919 -8.886112
-11.016470 -4.521990 -8.760197
-10.963780 -4.711578 -9.146513
-10.888320 -4.828267 -8.954243
-10.980930 -5.408700 -8.739033
-8.898620 -4.186568 -14.330146
-9.003590 -4.831730 -13.910397
-8.912750 -3.773336 -13.940955
-9.709160 -5.042140 -13.192282
-8.809600 -4.508115 -14.092011
-9.264520 -4.688103 -13.669794
-9.191370 -3.718099 -13.954156
-9.602380 -3.520763 -13.795064
-9.431180 -4.834632 -13.176076
-9.046660 -3.951587 -13.859005
-9.428480 -3.716573 -13.783922
-9.250930 -4.499622 -13.372994
-8.920110 -3.272360 -15.564295
-8.997560 -2.729619 -15.899363
-7.328800 -4.105579 -15.912955
-8.388640 -4.839050 -15.397639
-8.773490 -2.478378 -16.071261
-8.991410 -3.132111 -15.462698
-8.252500 -3.925414 -15.259820
-8.984300 -2.679780 -15.587267
-8.185960 -2.408804 -15.820781
-7.762640 -3.163958 -15.596373
-7.664520 -3.337574 -15.497882
-7.502870 -2.949335 -15.724151
-3.969911 -0.786680 -15.245000
-2.597412 -0.803780 -18.530150
-3.726437 0.584900 -16.676730
-2.638360 -1.705170 -16.187700
-4.328115 0.065410 -16.129930
-2.907504 -0.659690 -18.639580
-2.712775 -0.670640 -18.668150
-2.613174 -0.616720 -18.747620
-3.758507 -1.334000 -15.410440
-3.916125 -0.953140 -15.341380
-2.212448 -2.269750 -18.205800
-3.448483 -0.084320 -15.687710
-3.480585 -1.732700 -15.499940
-2.672753 -0.969840 -18.085710
-3.980383 0.110190 -16.263180
-2.581606 -0.979100 -18.372810
-3.463937 0.150550 -16.252910
-3.034910 -0.489840 -17.453340
-3.514730 -0.735400 -15.632420
-2.085104 -1.994160 -17.179400
-11.003970 -4.078759 -9.871712
-10.947190 -4.352060 -9.533207
-11.456760 -4.301519 -9.208935
-11.637040 -4.545934 -8.967559
-11.800080 -5.849525 -8.810294
-11.575640 -5.419230 -8.961922
-12.149990 -4.485295 -8.983135
-12.132450 -4.710326 -8.721208
-12.266780 -4.991358 -8.584726
-10.524280 -4.792770 -9.238248
-11.017530 -5.408939 -8.770505
-11.327370 -4.545091 -8.679483
-10.766030 -5.105715 -8.780545
-11.674210 -4.640935 -8.485266
-11.325730 -5.177954 -8.386844
-10.395330 -4.406753 -11.012312
-10.414610 -4.406623 -10.819055
-10.945640 -3.954214 -10.727166
-10.544580 -4.632291 -10.401158
-10.700460 -4.355384 -10.249998
-10.121890 -4.363742 -11.042662
-10.041420 -4.340342 -10.885172
-10.867340 -3.973377 -10.421600
-10.814970 -4.399715 -10.130694
-10.181550 -4.089194 -10.996291
-10.211800 -3.817263 -10.913966
-10.126940 -4.448808 -10.518093
-10.578650 -4.526497 -10.201151
-10.138220 -4.083192 -10.694864
-10.217770 -4.137291 -10.444666
-10.337200 -4.208970 -10.176651
-9.878630 -4.988382 -12.693561
-9.844870 -3.962893 -13.189212
-10.284830 -3.786584 -12.814043
-10.435920 -4.626140 -12.066244
-10.214250 -4.647529 -11.928036
-9.369340 -4.700139 -13.071697
-9.459050 -4.700745 -12.762498
-10.405120 -3.826172 -12.312989
-10.444150 -4.629913 -11.752098
-9.738730 -3.739961 -13.232987
-10.151420 -3.661338 -12.757240
-9.804340 -4.686573 -12.132228
-10.281860 -3.834292 -12.158336
-10.447210 -3.965998 -11.850547
-9.782900 -3.602704 -12.825989
-9.408510 -4.303595 -12.349843
-9.742880 -4.354740 -11.921929
-8.527460 -3.917078 -15.291298
-8.742630 -3.840628 -15.225720
-8.651100 -4.059234 -15.226625
-8.713740 -4.218013 -15.094964
-8.893090 -4.125258 -14.916226
-8.656050 -3.888084 -14.935840
-8.618700 -3.481107 -15.263398
-8.669410 -4.081684 -14.904004
-8.866660 -4.032927 -14.740766
-9.153550 -3.277712 -14.806709
-8.401670 -3.653922 -15.025439
-8.593690 -3.922058 -14.778544
-8.619430 -3.776863 -14.787378
-8.881680 -3.814974 -14.585754
-8.667330 -3.221482 -14.837329
-8.763860 -3.549918 -14.590526
-8.815880 -3.569945 -14.539217
-13.862647 -7.862195 -3.510290
-13.718953 -7.813505 -3.706640
-13.312687 -7.400782 -4.157919
-13.079016 -7.910270 -4.391079
-13.340604 -7.619649 -4.324570
-13.251864 -7.324052 -4.161017
-13.561760 -7.493925 -3.903628
-13.702451 -7.592762 -3.689803
-13.810989 -7.809016 -3.484437
-13.373834 -7.349602 -4.105162
-13.559640 -7.456581 -3.872473
-13.710153 -7.502454 -3.661876
-13.862647 -7.862195 -3.510290
-13.718953 -7.813505 -3.706640
-13.312687 -7.400782 -4.157919
-13.079016 -7.910270 -4.391079
-13.701649 -8.040115 -3.516214
-13.495321 -7.861006 -3.706976
-13.300258 -8.119618 -3.949170
-13.427794 -7.531637 -4.123191
-12.849390 -7.913477 -4.450130
-13.484381 -8.177806 -3.721084
-13.339947 -8.085898 -3.916775
-13.241483 -7.953082 -4.116176
-12.918830 -7.483735 -4.655233
-13.284742 -7.417853 -4.875050
-12.300320 -7.559675 -5.379683
-12.354500 -7.630005 -5.584618
-12.552300 -6.722576 -5.631916
-12.970180 -7.653281 -5.271122
-13.053130 -7.634612 -5.061885
-13.240804 -7.235562 -4.862406
-13.127090 -7.387974 -4.641200
-12.685220 -7.045220 -5.275358
-12.785500 -7.075338 -5.050789
-12.889590 -7.166696 -4.826293
-12.918830 -7.483735 -4.655233
-13.284742 -7.417853 -4.875050
-12.300320 -7.559675 -5.379683
-12.354500 -7.630005 -5.584618
-12.765010 -7.662475 -4.665665
-12.571750 -7.828608 -4.914473
-13.260279 -7.969691 -5.131310
-12.570740 -7.119284 -5.320075
-12.749070 -6.962871 -5.531560
-12.895160 -7.836168 -4.858945
-12.944167 -7.827981 -5.063051
-12.681710 -8.117931 -5.360157
-12.726170 -6.642522 -6.236315
-12.431190 -6.633922 -6.463665
-12.775260 -7.656480 -6.814277
-12.865450 -7.487398 -7.003694
-12.377480 -7.335792 -6.811785
-12.848650 -6.549458 -6.695238
-12.800840 -7.411051 -6.370052
-12.080100 -7.137222 -6.227354
-12.287690 -6.805589 -6.627834
-12.352290 -6.876512 -6.389645
-12.726170 -6.642522 -6.236315
-12.431190 -6.633922 -6.463665
-12.775260 -7.656480 -6.814277
-12.865450 -7.487398 -7.003694
-12.878520 -7.714671 -7.055175
-12.245160 -7.687120 -6.223905
-12.756450 -6.857130 -6.399435
-12.683500 -7.880950 -6.651730
-12.239600 -7.563205 -6.846927
-12.905088 -7.636404 -6.371985
-12.840860 -7.481243 -6.554098
-12.735960 -7.531747 -6.762072
-12.960290 -7.640369 -6.977433
-11.708550 -6.956035 -7.154412
-12.075620 -7.482296 -7.531694
-12.590640 -7.359618 -7.700583
-11.891900 -6.619961 -7.657815
-11.965010 -7.217415 -7.358978
-11.807000 -7.161455 -7.169243
-12.796870 -7.320992 -6.924300
-12.050090 -6.571324 -7.407630
-11.992490 -6.519633 -7.190590
-12.960290 -7.640369 -6.977433
-11.708550 -6.956035 -7.154412
-12.075620 -7.482296 -7.531694
-12.590640 -7.359618 -7.700583
-12.086210 -7.269171 -7.492030
-12.522740 -6.545981 -7.301856
-12.470770 -7.508429 -7.226034
-13.069320 -6.523247 -6.967851
-11.965730 -6.738288 -7.087213
-12.666250 -6.878980 -6.996440
-7.363090 -0.872345 -12.611701
-7.566640 0.033107 -14.544410
-9.987170 0.549451 -13.984720
-7.161570 -1.754246 -13.420383
-8.032160 -1.650639 -12.393538
-9.288460 -1.314319 -11.705713
-7.757800 0.079423 -14.319910
-7.245470 -1.466472 -13.640254
-8.353100 -1.277811 -12.390689
-10.267470 -0.385652 -12.449689
-7.432260 -0.549676 -13.684850
-8.566170 0.272374 -13.935910
-8.991570 0.100689 -13.324646
-8.000040 -1.390296 -12.772883
-9.297280 0.118587 -13.027647
-8.250800 -0.108416 -13.517549
-8.322530 -0.313587 -13.339587
-6.741180 1.577719 -15.231400
-6.764590 1.620882 -15.255957
-7.151260 1.664344 -15.027254
-6.933420 1.334330 -15.021280
-7.214320 1.679119 -14.527293
-6.929710 1.584145 -14.984390
-7.167100 1.401546 -15.135050
-7.136790 1.879555 -14.472907
-7.217460 1.476823 -14.869910
-7.481660 1.527877 -14.839097
-6.202385 3.213040 -12.361022
-5.959598 2.109007 -12.958038
-6.040387 2.146258 -12.967615
-5.597998 2.224391 -13.070708
-5.757277 2.081635 -13.125767
-6.026902 1.644440 -13.185890
-6.288698 1.831190 -13.015861
-6.226810 1.653465 -13.361490
-6.734050 1.715367 -13.337906
-6.389060 3.320556 -12.105211
-6.344514 1.576954 -13.120150
-6.636460 1.712548 -13.023585
-5.642580 2.363993 -12.521623
-7.077340 1.512248 -13.589800
-5.764366 3.467976 -12.061263
-6.296170 1.417823 -13.100530
-5.288650 2.452624 -12.437505
-7.128080 2.358160 -12.424262
-0.666436 1.501290 -15.567270
-0.319889 2.387830 -16.525900
-0.191227 3.024510 -16.416823
-1.631049 3.038780 -13.650350
-1.414534 3.121220 -13.896700
-1.580241 2.437210 -14.226740
-1.669421 2.263230 -14.113310
-1.373456 2.956700 -13.487890
-0.679585 4.434120 -13.888100
-1.053873 2.703690 -14.413230
-1.039955 3.339030 -13.979400
-1.022316 1.936210 -14.787020
0.066529 3.474770 -15.507940
0.182809 3.598680 -15.479930
-0.828183 2.610370 -14.460630
-1.097230 3.153280 -13.799230
-0.430327 2.261100 -15.080540
-0.996568 3.322560 -13.635370
-0.687922 3.413100 -14.017110
-7.317293 8.175923 -4.197838
-7.243063 7.583683 -4.505354
-7.497390 7.605546 -4.896232
-7.008437 7.464753 -5.242698
-7.229281 8.279419 -4.200442
-7.249916 8.379797 -4.403132
-6.967175 8.619830 -4.677881
-6.639024 7.903078 -5.021021
-7.080797 8.193952 -5.040401
-7.030176 8.343752 -4.425049
-7.044734 8.139143 -4.632204
-6.807465 7.753780 -4.974818
-7.417300 7.851850 -4.214374
-7.759213 7.689470 -4.454273
-7.531442 8.280300 -4.562815
-7.255008 7.211010 -5.068224
-7.030742 7.280040 -5.304333
-7.505255 7.755247 -4.181841
-7.732340 7.812116 -4.375962
-7.667213 8.114446 -4.524926
-7.072298 7.881026 -4.792502
-7.429021 7.206083 -5.215715
-7.504939 7.481116 -4.387999
-7.231087 7.500321 -4.599990
-6.942798 7.541488 -4.845711
-7.166719 7.550437 -5.099309
-6.991952 7.505980 -5.327539
-6.703911 7.505325 -5.822327
-6.885911 7.175827 -6.007690
-7.086518 7.744884 -5.096228
-7.052033 7.522912 -5.296603
-6.627350 7.545137 -5.617581
-6.472724 7.365908 -5.916069
-6.724653 7.463278 -6.006886
-6.920484 7.768624 -5.295935
-6.802076 7.642600 -5.520778
-6.702838 7.553216 -5.757846
-7.245968 7.384695 -5.103060
-7.361302 7.270435 -5.305130
-7.293176 7.022705 -5.552927
-6.953408 7.355695 -5.751772
-6.919438 6.952375 -6.059392
-7.350487 7.233391 -5.088728
-7.205402 7.139231 -5.312884
-7.345410 7.069338 -5.517744
-7.006145 7.019421 -5.779966
-7.058065 6.852276 -6.037723
-7.334292 6.978982 -5.295976
-7.254273 6.883638 -5.530554
-7.177111 6.770984 -5.786996
-6.672862 7.020381 -6.366629
-6.794922 6.779124 -6.565148
-6.452308 6.690884 -7.032977
-6.257066 6.672694 -7.316813
-6.637305 7.114374 -6.356426
-6.402974 7.027495 -6.594840
-6.435725 7.009926 -6.790126
-6.292795 7.001147 -7.037275
-6.628668 6.921148 -7.154861
-6.437314 7.227248 -6.562922
-6.374873 7.135983 -6.770383
-6.242947 7.161595 -7.017053
-6.643179 6.789362 -6.378023
-6.602969 6.393392 -6.651690
-6.798999 6.737982 -6.766511
-6.484049 6.454552 -7.073356
-6.415179 6.471632 -7.300956
-6.808976 6.642288 -6.364212
-7.167376 6.540253 -6.592273
-6.785260 6.601292 -6.774507
-6.494890 6.323448 -7.102218
-6.531943 6.279569 -7.331862
-6.792919 6.373386 -6.585327
-6.746775 6.287448 -6.821024
-6.682481 6.190563 -7.077619
-5.807909 5.397098 -7.004946
-5.538160 5.247051 -7.235335
-4.735429 6.871571 -7.521658
-5.021229 7.124815 -7.767854
-6.147004 5.081108 -8.119916
-6.670267 6.174613 -7.115816
-5.057258 5.521384 -7.123921
-4.367613 6.292790 -7.704427
-5.353773 5.406731 -7.692022
-4.566465 6.595390 -6.959933
-4.716280 7.397092 -7.423640
-4.454651 6.019774 -7.351557
-6.517710 5.718331 -7.598516
-5.156018 5.623557 -7.530316
-4.739278 5.927695 -6.969475
-5.192563 5.986414 -7.042390
-5.090214 5.844923 -7.228869
-6.695112 6.503719 -7.259360
-4.827142 5.816659 -7.213750
-6.670832 5.644229 -7.723447
-6.470552 5.276389 -7.982430
-5.100262 5.062849 -8.068006
-5.181732 6.509215 -7.189236
-6.627686 5.404766 -7.838691
-6.577878 5.632113 -7.969556
-6.839728 7.117791 -7.154728
-6.690431 7.245801 -7.311959
-5.879219 7.284365 -7.706182
-5.867257 7.949103 -6.937995
-6.578740 7.825324 -7.005719
-5.620270 7.443675 -7.570991
-5.898993 7.701730 -7.595406
-6.427912 7.317261 -7.757451
-5.866095 7.038790 -7.119928
-5.549609 7.639552 -7.318243
-6.616590 7.129461 -7.578633
-6.139977 7.409947 -7.766555
-5.854666 7.755144 -6.919583
-5.876918 7.629035 -7.133877
-6.033913 7.506054 -7.306298
-6.457835 7.758093 -7.360516
-6.580141 7.689529 -7.535872
-6.279907 7.873521 -6.964613
-6.236465 7.759868 -7.166958
-6.393341 7.678557 -7.323909
-6.199546 7.628241 -7.522698
-5.852681 6.942109 -7.361315
-5.909951 7.047329 -7.514314
-6.286001 6.906069 -7.700585
-7.072422 6.172400 -9.197764
-6.329913 5.904764 -8.670509
-6.675747 6.931479 -8.575525
-7.021984 6.696699 -8.810716
-5.855201 6.618812 -9.119510
-6.800882 6.968196 -8.151788
-7.029654 6.633657 -8.373961
-6.367329 7.042717 -8.144451
-6.874665 6.803003 -8.289586
-6.620161 6.368828 -8.534408
-6.183521 7.038908 -8.739517
-6.260664 7.206285 -8.280328
-6.310650 6.907062 -8.384366
-6.789141 6.400945 -8.408590
-6.415571 5.785865 -8.936541
-6.104481 6.337795 -8.978792
-6.898981 6.019445 -9.201760
-6.368864 5.954350 -8.865125
-6.639714 6.387388 -9.843381
-6.535343 6.081796 -9.809772
-6.736341 6.575373 -9.658748
-6.252811 6.463452 -9.830934
-6.577152 6.045963 -9.196610
-6.142288 6.126983 -9.476599
-6.397966 6.480666 -9.428481
-6.455402 6.447901 -9.155688
-6.709365 5.620149 -9.951478
-6.078055 6.084019 -9.240832
-6.309365 6.315479 -9.359386
-6.874425 6.039799 -9.578322
-6.589421 5.611283 -10.057426
-6.686226 5.952784 -9.640363
-6.071440 5.592905 -9.662280
-6.368811 5.520038 -9.628484
-6.346609 5.515485 -9.887775
-6.381132 5.523155 -10.066398
-6.374068 5.965685 -9.226354
-5.200190 2.550578 -13.480558
-5.803890 1.189392 -14.113540
-5.968520 1.388246 -14.011820
-6.027370 1.511066 -14.104961
-6.343900 1.385617 -14.389966
-6.864600 1.388442 -13.249022
-6.533270 1.237736 -13.633658
-6.545020 1.578900 -13.764422
-6.684470 1.446258 -14.120138
-6.254200 1.106299 -13.534921
-6.177630 1.945273 -13.168203
-6.642050 1.519618 -13.507768
-6.896720 1.408422 -14.131909
-6.716750 1.507757 -13.738028
-6.808870 1.376280 -13.299103
-6.667340 1.475983 -13.390179
-3.481400 2.380549 -12.742534
-6.624600 1.726690 -13.059490
-3.876950 2.598497 -12.525771
-4.140720 4.034872 -11.557567
-4.427090 3.933759 -11.555308
-4.130800 1.791960 -12.978970
-4.425700 2.898050 -11.893364
-4.923630 1.696891 -13.076458
-5.438140 4.173287 -11.277596
-5.550580 1.275846 -12.846900
-5.558250 1.476404 -13.108840
-5.167890 2.433518 -11.976910
-4.176890 2.332280 -11.811274
-6.930550 2.702715 -12.120387
-5.087880 1.414036 -12.883230
-4.675240 1.930063 -12.341271
-5.353320 2.387864 -11.923770
-6.679740 2.082683 -12.126334
-4.792700 2.047685 -11.988277
-5.670010 1.780201 -12.422029
-7.213250 4.696778 -10.704287
-7.222963 2.748257 -10.253556
-5.653522 3.401130 -11.736500
-6.785178 2.970174 -10.587073
-6.208531 2.013494 -11.880439
-6.414576 4.907021 -11.060741
-6.309767 1.844940 -10.859323
-6.582970 3.982001 -10.652026
-6.995854 1.594728 -11.167219
-5.260887 2.658652 -11.379030
-5.850220 4.261613 -11.050459
-7.192019 1.337559 -10.976123
-7.531592 2.834013 -10.136449
-7.071984 1.005852 -10.956234
-8.108097 1.853241 -10.295326
-9.352500 1.779090 -13.634119
-8.265700 0.603690 -14.312010
-7.187180 0.834162 -14.293922
-8.195190 0.862001 -14.162189
-7.072840 1.477486 -13.691180
-9.314700 1.792732 -13.345328
-7.791810 2.337194 -12.736862
-8.247450 0.755577 -13.987511
-7.657620 1.539896 -13.170888
-8.372510 2.515969 -12.564874
-8.775350 1.802892 -12.862821
-8.497240 1.563796 -12.925892
-7.019720 1.908514 -13.026677
-7.197880 1.787502 -13.072360
-6.441210 1.348526 -14.149625
-8.752380 1.710801 -12.690244
-8.388080 0.520206 -13.560510
-7.473740 0.365003 -14.238710
-5.928411 5.735345 -10.008364
-7.069051 5.118605 -9.772233
-6.164157 4.154419 -10.312578
-5.935966 5.435913 -10.185113
-5.473202 4.933450 -9.999034
-5.503266 5.224541 -9.739697
-6.492517 4.075354 -9.865856
-7.142208 5.079711 -10.044031
-6.793653 4.483134 -10.174482
-6.041799 4.367157 -10.386198
-5.736495 5.043990 -9.950799
-6.134227 4.395801 -10.145089
-5.933486 5.439776 -9.398910
-5.915217 4.481185 -9.748374
-6.121949 5.458792 -9.913253
-6.493033 5.933061 -9.852617
5.000000 -10.000000 -26.000000
4.381984 -8.905310 -24.662417
3.672238 -7.956520 -23.493194
3.140161 -7.162500 -22.523325
2.734444 -6.532440 -21.825889
2.402585 -5.997430 -21.248621
2.002474 -5.398730 -20.520981
1.488633 -4.594760 -19.549470
1.329771 -3.321570 -18.489120
5.000000 -10.000000 -26.000000
4.416646 -9.075530 -24.609880
3.870467 -8.232620 -23.329690
3.409027 -7.504550 -22.248120
3.041199 -6.913870 -21.363650
2.709014 -6.385820 -20.574910
2.335382 -5.801170 -19.688840
1.877533 -5.081310 -18.600290
1.433633 -4.747560 -17.072140
5.000000 -10.000000 -26.000000
4.802336 -9.327667 -22.722314
4.191074 -9.014686 -19.711400
3.388647 -8.345859 -17.293560
3.015441 -7.516685 -15.338090
2.772475 -7.092917 -13.464850
2.786473 -6.831749 -11.324220
2.128694 -6.420747 -8.807170
3.478201 -6.561400 -6.032970
5.000000 -10.000000 -26.000000
4.898042 -9.539227 -22.474820
4.751120 -9.236775 -19.182510
4.429930 -9.055479 -16.316120
4.218400 -8.941321 -13.865050
4.039060 -8.873234 -11.601040
3.753380 -8.697656 -9.161140
3.304370 -8.263400 -6.339440
4.859281 -8.533270 -3.430637
5.000000 -10.000000 -26.000000
4.275809 -8.797020 -24.694160
3.674999 -7.710030 -23.481320
3.143414 -6.902280 -22.450670
2.743683 -6.332640 -21.663700
2.408920 -5.837570 -21.036380
2.028650 -5.199170 -20.293780
1.510200 -4.351660 -19.288690
0.314740 -3.606780 -18.274860
-18.000000 5.000000 -26.000000
-16.308721 4.557387 -24.487346
-14.777151 4.021274 -23.056200
-13.547519 3.377834 -21.737400
-12.536757 2.858791 -20.520530
-11.608490 2.441211 -19.344560
-10.621570 1.996535 -18.079630
-9.441340 1.352775 -16.716580
-8.102270 1.201869 -15.024316
-18.000000 5.000000 -26.000000
-16.265574 4.235496 -24.567063
-14.796625 3.568690 -23.024161
-13.809290 2.833291 -21.458432
-12.885350 2.388573 -20.036304
-11.824925 2.064061 -18.815125
-10.551636 1.752095 -17.650953
-9.097530 1.276469 -16.375599
-8.957690 0.092751 -14.488393
-18.000000 5.000000 -26.000000
-16.890069 4.488938 -24.214307
-15.814618 3.993297 -22.471194
-14.784054 3.519668 -20.802381
-13.786471 3.070316 -19.205688
-12.804329 2.628794 -17.637681
-11.814324 2.175449 -16.037421
-10.784700 1.708013 -14.366278
-9.425380 1.723596 -12.770122
-18.000000 5.000000 -26.000000
-17.080411 4.643243 -24.230877
-16.159152 4.285704 -22.462774
-15.239057 3.925950 -20.694521
-14.319760 3.567532 -18.925576
-13.401220 3.210329 -17.156001
-12.480590 2.853782 -15.387382
-11.564420 2.496046 -13.616674
-10.663920 2.463599 -11.816660
-18.000000 5.000000 -26.000000
-16.507060 4.237573 -24.532822
-15.603760 3.847098 -22.594857
-14.697930 3.263285 -20.806810
-13.923350 3.222533 -18.953350
-13.230430 3.124638 -17.103960
-12.339890 3.052710 -15.304310
-11.045330 2.461853 -13.776750
-9.196510 1.908195 -12.777040
-18.000000 5.000000 -26.000000
-16.743657 4.441812 -24.233609
-15.524990 3.905898 -22.527259
-14.368300 3.404693 -20.916310
-13.276910 2.930677 -19.390173
-12.216600 2.461544 -17.897852
-11.139675 1.984392 -16.362443
-9.985282 1.492970 -14.746839
-8.640250 1.674069 -13.066450
-18.000000 5.000000 -26.000000
-16.361640 4.896582 -24.412249
-14.895030 4.307433 -22.935502
-13.617500 3.386526 -21.762500
-12.507820 2.531909 -20.680450
-11.447800 1.904933 -19.527140
-10.396910 1.398508 -18.196090
-9.517410 1.083273 -16.468890
-9.674690 0.178280 -14.510650
-18.000000 5.000000 -26.000000
-17.144055 4.621258 -24.063621
-16.292316 4.248522 -22.131099
-15.445070 3.877528 -20.206858
-14.606600 3.506071 -18.288203
-13.767410 3.135416 -16.373401
-12.920520 2.759263 -14.459357
-12.073850 2.378777 -12.536710
-11.117440 1.507520 -10.833064
-18.000000 5.000000 -26.000000
-17.101680 4.585585 -23.836412
-16.208940 4.173959 -21.694692
-15.333390 3.761340 -19.584357
-14.468950 3.336466 -17.506107
-13.614280 2.911756 -15.437419
-12.751270 2.495093 -13.356897
-11.863830 2.076310 -11.252760
-10.692480 1.079004 -9.473094
-18.000000 5.000000 -26.000000
-17.238322 4.586155 -23.588145
-16.479111 4.170447 -21.181405
-15.725886 3.750699 -18.782026
-14.976721 3.329390 -16.389192
-14.227567 2.909996 -13.999013
-13.476330 2.491597 -11.606314
-12.722000 2.071129 -9.207415
-11.866540 1.451186 -6.894212
-18.000000 5.000000 -26.000000
-17.371695 4.623472 -23.286998
-16.746430 4.242972 -20.578806
-16.127391 3.860636 -17.877055
-15.512024 3.474842 -15.181652
-14.893990 3.084471 -12.490180
-14.273203 2.696154 -9.796390
-13.652282 2.312332 -7.095274
-13.082343 1.776659 -4.420195
-18.000000 5.000000 -26.000000
-16.517682 4.892953 -24.118072
-15.035859 4.778276 -22.236202
-13.554622 4.671423 -20.353420
-12.074541 4.564361 -18.469732
-10.595320 4.450359 -16.585780
-9.114750 4.340187 -14.702650
-7.631104 4.230944 -12.821900
-5.830101 4.067280 -11.258360
-18.000000 5.000000 -26.000000
-16.509678 4.693989 -24.337254
-15.019043 4.395378 -22.673454
-13.524684 4.095877 -21.013151
-12.027919 3.800326 -19.354320
-10.539553 3.509214 -17.687140
-9.050430 3.210683 -16.021970
-7.558248 2.918492 -14.358410
-6.185562 2.723970 -12.585110
5.000000 -10.000000 -26.000000
5.607989 -8.752287 -23.302528
6.236604 -7.529483 -20.598384
6.887207 -6.350966 -17.879816
7.512249 -5.157025 -15.161983
8.144770 -3.967537 -12.443926
8.797740 -2.787010 -9.726800
9.480640 -1.617263 -7.012363
9.838830 -0.666897 -4.154614
5.000000 -10.000000 -26.000000
4.430615 -9.267272 -23.603968
3.963964 -8.573093 -21.379870
3.547840 -7.955213 -19.475430
3.195270 -7.447140 -17.890620
2.879130 -6.995201 -16.447960
2.545220 -6.510220 -14.851910
2.183870 -5.897110 -12.934790
1.163941 -6.604860 -10.910460
5.000000 -10.000000 -26.000000
3.444180 -8.607900 -24.486550
2.067071 -7.208540 -23.192870
0.896394 -6.097460 -22.094680
-0.020212 -5.222670 -21.260770
-0.823016 -4.462950 -20.565860
-1.755128 -3.600810 -19.736010
-2.878499 -2.479660 -18.599330
-4.230098 -1.422730 -16.992510
5.000000 -10.000000 -26.000000
4.441083 -9.448350 -22.523880
4.021687 -9.084310 -19.253670
3.517270 -8.734560 -16.420780
2.986163 -8.496490 -14.017390
2.500105 -8.356100 -11.791190
1.983218 -8.187100 -9.378860
1.390190 -8.058870 -6.544430
2.064111 -7.464810 -3.351756
5.000000 -10.000000 -26.000000
4.573478 -9.345971 -24.351812
4.158704 -8.718681 -22.823541
3.786707 -8.213450 -21.461084
3.476974 -7.743060 -20.294862
3.216738 -7.281870 -19.212888
2.898671 -6.823960 -18.043956
2.532769 -6.293770 -16.689358
2.980190 -5.275510 -15.401430
5.000000 -10.000000 -26.000000
5.568525 -7.518513 -24.192770
5.401990 -5.212083 -22.548820
4.993390 -3.565629 -20.945080
4.817290 -2.363770 -19.645980
4.737850 -1.341143 -18.546890
5.018790 0.034260 -17.454910
5.273610 1.746439 -15.888610
3.770200 1.150961 -13.557340
-5.000000 10.000000 -26.000000
-5.093451 9.054031 -24.238186
-5.133716 8.147747 -22.483735
-5.143721 7.267213 -20.762538
-5.181835 6.396475 -19.078819
-5.240915 5.525260 -17.412874
-5.341384 4.646650 -15.735838
-5.462167 3.731627 -14.036973
-5.287266 3.189788 -12.149396
-5.000000 10.000000 -26.000000
-4.587401 8.508449 -23.980126
-4.076124 7.352204 -21.999730
-3.791834 6.313604 -20.297330
-3.999913 5.896151 -18.699210
-4.087561 4.882100 -17.591220
-4.333569 4.033551 -16.180196
-4.487405 3.362300 -14.287200
-3.623718 3.468539 -12.104770
-18.000000 5.000000 -26.000000
-16.413570 4.595466 -24.476922
-14.834401 4.207601 -22.942021
-13.244359 3.818747 -21.418630
-11.657893 3.421622 -19.893640
-10.071150 3.028358 -18.367930
-8.484315 2.633573 -16.842730
-6.892613 2.242110 -15.321740
-5.391037 1.631470 -13.785830
5.000000 -10.000000 -26.000000
3.880034 -8.530470 -24.393443
2.740588 -7.354900 -22.912230
1.774587 -6.246240 -21.914670
1.103730 -5.385200 -21.239250
0.592518 -4.731640 -20.636870
0.008891 -3.948590 -19.803890
-0.699963 -2.848900 -18.601526
-1.579752 -2.270560 -16.661270
5.000000 -10.000000 -26.000000
4.459250 -8.997786 -24.448565
3.812019 -8.128044 -23.082903
3.388811 -7.316288 -21.993936
3.053173 -6.782326 -21.138198
2.767281 -6.330036 -20.437658
2.469592 -5.807340 -19.561171
1.983715 -5.141389 -18.401710
2.783688 -4.083290 -17.271040
0.953414 -3.360730 -18.003680
0.233470 -3.425030 -18.761030
0.676608 -3.414320 -18.756060
0.955055 -3.715950 -18.377710
0.253153 -2.986890 -18.704550
0.946145 -2.933610 -18.474710
0.759600 -3.516250 -18.131300
0.628671 -3.641620 -18.255990
0.910404 -3.583610 -18.247630
0.539072 -3.114990 -18.199150
0.731646 -3.281230 -18.097710
0.787564 -3.374890 -18.124530
1.393985 -4.064870 -17.773610
1.120182 -4.292100 -17.662080
1.770801 -4.001270 -17.552570
1.234722 -4.264600 -17.396140
1.568228 -4.645800 -17.008110
1.529256 -3.917680 -17.585080
1.032454 -4.020780 -17.697460
1.226497 -3.988290 -17.347560
1.488954 -4.411730 -16.910550
1.226100 -3.959140 -17.406440
0.907369 -4.288950 -17.290210
1.340810 -4.523560 -16.874490
1.286299 -4.178130 -16.881300
1.158005 -3.890940 -17.177180
1.177440 -3.954730 -17.014780
3.844873 -6.432440 -6.214430
2.982686 -8.002040 -6.160100
-0.255511 -5.481450 -6.728590
0.000214 -5.359080 -6.539600
3.794366 -5.493150 -6.235440
3.603726 -6.258540 -6.058580
3.255709 -6.354990 -5.966710
1.218941 -6.832500 -5.566607
2.215593 -7.614750 -5.600190
2.074203 -4.884980 -5.721300
1.284886 -6.771600 -5.667940
2.980146 -6.362380 -5.607060
2.313706 -7.643260 -5.697610
0.200663 -6.631480 -6.062270
3.047415 -8.016820 -5.978030
2.122997 -4.373620 -6.236130
3.188035 -5.040130 -6.175280
0.455687 -4.782390 -6.783140
0.722740 -7.336420 -5.973760
1.574265 -7.533200 -5.801520
2.242553 -4.685420 -6.118140
1.727670 -4.688760 -6.206650
4.682674 -8.439940 -3.014641
1.771633 -9.742800 -3.277060
3.588265 -7.171120 -2.644517
3.979838 -8.298840 -3.087806
4.053871 -7.753050 -3.014498
4.532791 -10.022810 -3.475869
2.313690 -10.891490 -3.905319
4.460829 -6.781910 -2.967891
3.546914 -8.565430 -3.201703
1.866058 -8.217150 -3.377496
1.272814 -9.924190 -3.911879
3.295214 -6.218590 -3.228870
2.955084 -8.021010 -3.363420
3.734675 -9.317720 -3.408001
4.734228 -8.752050 -3.418199
1.391439 -6.973430 -3.791500
1.207748 -6.872250 -3.778049
2.458871 -6.931510 -3.785144
1.113607 -7.989300 -4.090785
3.403561 -10.467370 -3.880300
0.942430 -3.313200 -18.527960
0.376980 -3.643890 -18.619820
0.482480 -3.689320 -18.425350
1.393280 -3.388690 -18.068940
0.556420 -3.340350 -18.391590
0.824140 -3.182510 -18.149030
1.552698 -4.681070 -17.564170
1.199440 -4.467740 -17.653750
0.987340 -4.309530 -17.753510
0.343870 -3.477400 -18.538260
0.390980 -3.541490 -18.296240
0.492940 -3.450410 -18.118320
0.862360 -3.139190 -17.972620
1.533230 -4.681560 -17.360440
2.241300 -3.066660 -18.168890
2.049880 -2.979760 -18.308840
1.033070 -2.786430 -18.777930
1.024510 -2.776620 -18.685510
1.101760 -3.712650 -17.520220
0.844100 -3.134410 -17.797650
0.655110 -4.538010 -17.454480
0.530330 -4.325280 -17.616090
0.889480 -2.747840 -18.614040
1.571110 -3.139230 -17.631720
0.861740 -3.146810 -17.605430
1.402880 -4.420140 -17.099750
1.813860 -4.129400 -17.239310
1.799420 -3.870490 -17.337020
0.285810 -3.763100 -17.911800
0.333930 -3.768580 -17.533930
-7.953470 1.488781 -15.118470
-8.226780 1.161534 -15.129160
-7.924650 1.139409 -15.687430
-8.722240 0.140569 -14.697000
-8.374670 1.158245 -14.701680
-7.619070 0.413200 -16.162395
-8.736130 -0.044946 -15.497825
-8.093840 0.127580 -16.249258
-8.261550 0.713037 -15.450822
-7.233830 0.565796 -15.687833
-8.309980 1.205620 -14.611230
-7.672740 0.724417 -15.777853
-8.849470 -0.097947 -15.478036
-8.624060 -0.273377 -15.837934
-8.807350 0.051383 -14.456810
-8.341130 1.083253 -14.481590
-8.741820 -0.295638 -15.209233
-8.558090 -0.352041 -15.681406
-7.627140 -0.036541 -15.438143
-8.987290 0.172797 -14.613900
-9.006020 0.166172 -14.808530
-8.172110 2.332868 -14.407166
-9.301570 1.486245 -14.114258
-8.190820 1.748071 -14.477257
-7.543000 1.395375 -15.041988
-7.493630 0.969848 -15.266060
-9.399720 -0.116628 -14.264486
-7.151200 0.964207 -14.970807
-8.729570 0.325396 -14.413418
-7.308190 0.574374 -15.377870
-9.253060 -0.142930 -14.107824
-8.412620 1.935060 -14.000516
-7.406510 0.068950 -15.100117
-7.193460 1.227345 -15.033701
-7.702670 1.540531 -14.511897
-8.406520 -0.255302 -14.761461
-7.145020 1.441999 -14.508658
-7.144380 1.298979 -14.723789
-9.295710 1.765089 -12.567990
-9.947670 0.782189 -12.601139
-9.390210 1.425095 -12.985818
-9.523140 1.895799 -13.097587
-10.011760 0.853949 -12.181111
-10.533460 1.674388 -12.075109
-9.883060 1.523792 -12.737172
-9.680930 1.356644 -13.153598
-9.961710 1.334153 -12.050255
-9.768970 1.384858 -12.236168
-9.584560 1.279417 -12.932798
-9.989590 1.360274 -12.433541
-9.740790 1.209902 -12.338761
-9.676460 1.148702 -12.643107
-9.662370 1.173182 -12.848951
-10.566080 2.069355 -12.079750
-10.965160 1.759791 -11.921960
-11.401670 2.365634 -11.537048
-10.948520 2.410754 -11.581333
-10.483880 2.093784 -11.893690
-10.857420 2.410394 -11.625000
-10.488270 2.378577 -11.730560
-10.724360 1.852729 -11.646460
-10.832730 2.708482 -11.461780
-10.579500 2.111857 -11.569960
-10.725730 2.111705 -11.453160
-10.822660 2.221681 -11.342260
-9.496330 2.153759 -12.377640
-9.699900 2.875097 -12.142830
-9.343570 2.475425 -12.316100
-9.753940 1.404403 -12.199620
-9.678460 2.619495 -11.880100
-10.676210 0.955368 -12.008680
-10.532620 3.255258 -11.588770
-10.366260 3.254563 -11.584020
-10.253370 1.079317 -11.825180
-10.430680 0.993131 -11.802760
-9.383440 1.742105 -11.991860
-9.468030 0.611034 -13.315605
-8.386520 1.193118 -13.659296
-10.010470 0.621115 -12.778563
-8.559530 0.514662 -13.161915
-9.985790 0.246757 -12.541444
-9.103960 0.623692 -13.438714
-8.831480 1.811524 -13.147125
-8.779210 0.412750 -12.990860
-8.694150 2.164964 -12.604136
-8.783900 1.061381 -13.388003
-9.155720 0.721306 -13.029977
-9.143840 0.606339 -12.857389
-8.572190 0.817905 -12.877242
-8.802120 1.821895 -12.425067
-8.724980 1.122359 -13.063144
-8.771540 1.114345 -12.800776
-8.794100 1.237003 -12.557573
-8.913920 -0.383266 -15.149880
-9.296440 -0.079465 -14.695672
-7.992150 1.875266 -14.896720
-8.266660 2.194151 -14.678770
-8.372930 -0.286509 -15.348510
-8.532890 1.750660 -14.550190
-8.832220 1.839765 -14.338530
-8.349840 2.021435 -14.490440
-7.892050 -0.026872 -15.427120
-7.659590 1.390002 -15.387330
-8.985200 0.848556 -14.236313
-8.748540 1.405857 -14.202130
-11.139150 1.644343 -11.216110
-11.166550 1.622915 -11.279670
-11.656870 1.814325 -10.770028
-11.237350 1.622245 -10.976794
-10.933640 1.666790 -11.154173
-10.703150 2.383397 -10.990107
-11.045920 1.759934 -10.814300
-11.086950 1.883268 -10.765074
-10.708800 1.911558 -10.821993
-11.079940 2.229339 -10.483026
-10.924590 1.775727 -10.599874
-11.428280 1.424576 -10.424047
-11.038580 1.815609 -10.322452
-11.078340 1.791215 -10.472264
-11.181140 2.134043 -10.185700
-11.251820 1.621790 -10.205534
-12.003730 1.210542 -9.465088
-11.597600 2.131803 -9.242176
-10.166840 1.543398 -9.991045
-10.855290 0.887995 -9.742186
-10.894400 0.872025 -9.699418
-11.586860 1.120630 -9.244952
-11.117690 1.733526 -9.327153
-10.851280 2.909113 -9.267581
-10.320850 1.615882 -9.537165
-11.585380 0.987107 -9.134073
-11.057630 1.470712 -9.012893
-10.981540 1.647486 -9.157960
-11.397730 2.456558 -8.759119
-10.727340 2.553875 -9.036899
-11.885810 2.218486 -8.719790
-11.893370 1.778833 -8.706004
-11.411660 1.569197 -8.737978
-10.986450 1.345260 -8.793803
-11.775420 2.139754 -8.540221
-10.693280 1.832127 -8.793580
-11.633640 1.529173 -7.490035
-11.808430 1.413167 -7.206866
-11.732990 1.824768 -7.272441
-11.842910 1.479238 -7.189883
-12.216000 1.467982 -6.927622
-11.852670 1.923055 -7.019146
-11.911970 1.899848 -6.907524
-11.968210 1.249914 -6.792132
-12.052430 1.709886 -6.763927
-11.900750 1.344276 -6.993427
-11.860840 1.932325 -6.833469
-11.912960 1.491749 -6.791046
-11.950920 1.873494 -6.633688
-11.953410 1.739150 -6.566224
-12.369170 1.610120 -6.434889
-12.303350 1.287672 -6.571090
-12.040230 1.339986 -6.682425
-12.166200 1.437787 -6.393071
-12.173940 1.702336 -6.333171
-11.972310 1.507327 -6.447311
-11.862730 1.994236 -6.680946
-11.908250 1.930567 -6.525652
-12.016670 1.606168 -6.470956
-13.273855 1.823765 -3.957617
-13.322306 1.879464 -3.960537
-13.229282 2.091077 -3.952617
-13.203106 1.539694 -4.195392
-13.193658 1.806355 -4.172085
-13.113956 1.873188 -4.193606
-13.105145 2.110264 -4.173570
-12.995368 2.220995 -4.178417
-13.041948 1.563838 -4.422591
-13.072855 1.450110 -4.485268
-13.055531 2.115750 -4.385380
-12.806916 2.173851 -4.439019
-12.924883 1.549452 -4.660675
-12.841057 1.781832 -4.661159
-12.781378 2.002841 -4.667796
-12.789808 1.925332 -4.688341
-12.764181 2.170463 -4.664350
-12.845260 1.633658 -4.898433
-12.792876 1.887929 -4.883425
-12.707868 1.859997 -4.945021
-6.283218 3.746550 -11.505680
-6.591487 4.002820 -11.127440
-6.510928 3.671120 -11.220690
-6.496331 4.262750 -10.945480
-6.522777 4.096580 -10.930380
-6.052307 3.845410 -11.366260
-6.241906 3.600940 -11.309540
-6.450334 4.138260 -10.778050
-6.279833 4.270540 -10.862860
-6.017737 3.724520 -11.110260
-6.344045 4.231100 -10.644970
-6.171754 4.171730 -10.688710
-6.027333 3.973900 -10.786180
-5.880114 3.913220 -10.857710
-5.881507 4.202530 -10.599890
-5.741954 4.068460 -10.678090
-6.363117 2.264480 -12.993390
-6.505134 2.255270 -12.825460
-6.668296 2.429780 -12.576530
-6.663285 2.612000 -12.422700
-6.464242 2.981840 -12.363490
-6.137322 2.730180 -12.363500
-6.464147 2.529710 -12.323170
-6.088675 2.316530 -12.860860
-6.020849 2.287170 -13.008790
-5.999875 2.765690 -12.240920
-6.035399 2.657110 -12.356070
-5.971666 2.488500 -12.545100
-5.943856 2.316780 -12.704260
-5.996299 2.246370 -12.734900
-5.755902 2.682720 -12.346540
-5.714855 2.548570 -12.501130
-5.673630 2.445360 -12.638600
9.697670 -0.309591 -4.684945
10.713400 0.327132 -5.577829
9.931780 -0.552310 -4.637078
10.085330 -0.731777 -4.401979
10.476180 0.240742 -5.090724
10.817900 0.206234 -5.227688
10.206970 -0.559763 -4.404651
10.200980 -0.478521 -4.557244
10.066690 -0.464794 -4.319388
9.609610 -0.578325 -4.194801
10.321300 -0.592912 -4.257074
11.027810 0.363944 -5.224962
10.127900 -0.471477 -4.134432
9.537400 -0.147012 -4.182902
10.380310 0.465567 -4.734854
10.862340 0.288946 -4.786920
8.694430 0.387510 -4.556529
10.123900 -0.279189 -3.996280
10.534760 0.014142 -4.211266
9.799970 -0.626436 -3.750632
0.117562 -4.615790 -12.041550
2.409608 -3.665830 -12.075230
3.055175 -6.385760 -10.966090
0.052852 -6.733960 -11.317170
3.369612 -4.323710 -11.212330
0.920651 -6.725660 -11.038280
1.624333 -6.582740 -10.889000
2.016176 -6.155560 -10.927320
0.557810 -7.063610 -10.902360
2.575927 -7.071270 -10.576970
2.622967 -6.037100 -10.708740
1.398338 -5.854810 -11.015550
0.985360 -4.229550 -10.863440
3.372477 -5.293820 -10.553910
2.333753 -6.361120 -10.446610
2.339423 -5.976190 -10.603380
1.689709 -5.181860 -10.980920
2.981563 -5.802740 -10.238020
2.433635 -5.054860 -10.464530
1.719374 -5.309150 -10.630540
-4.884151 -1.659390 -16.827420
-4.899586 -0.831260 -18.392170
-4.719168 -1.011470 -17.996430
-4.209408 -1.045680 -17.499460
-4.553959 -0.549450 -17.454220
-4.902438 -0.945120 -17.944400
-4.801976 -1.252610 -17.737300
-4.429770 -0.977840 -17.941110
-3.811598 -0.924630 -17.577260
-5.605433 -1.934400 -17.854360
-5.099825 -1.264910 -17.807430
-4.266028 -0.808970 -17.886420
-3.872589 -1.093600 -17.345220
-5.378316 -2.229670 -17.265370
-5.057923 -1.177500 -17.783020
-4.467018 -0.898950 -17.509000
-4.237572 -1.232550 -17.183090
-3.893062 -1.159150 -17.210170
-4.299738 -0.855800 -16.995340
-4.398049 -1.116940 -17.105120
-4.172070 -1.166560 -17.098710
3.223427 -9.268760 -3.299072
1.005144 -7.401340 -2.817829
-0.476154 -8.579410 -3.222089
2.876636 -8.012940 -3.119444
1.775468 -9.996670 -3.520136
0.202989 -7.750890 -3.285769
1.423254 -8.634620 -3.266769
3.121365 -7.728110 -3.314710
2.801451 -8.627310 -3.320734
0.179958 -7.665330 -3.496160
1.039985 -8.501340 -3.434167
2.708923 -6.934440 -3.444804
0.031002 -7.234230 -3.516435
1.068974 -6.903790 -3.487704
0.389147 -8.379490 -3.583350
0.698746 -8.003330 -3.626687
0.935045 -6.390480 -3.731497
0.306572 -8.355340 -3.605789
0.832009 -7.482850 -3.659086
2.831665 -5.210120 -15.571100
3.058495 -6.201200 -15.100410
2.093086 -4.905990 -15.670020
2.560068 -5.327180 -15.425460
2.878480 -5.135230 -15.492110
1.525004 -5.869440 -15.237350
2.006454 -5.242700 -15.586160
2.237681 -5.137700 -15.227240
2.047100 -5.592650 -15.288590
2.100824 -5.703900 -15.090330
2.130131 -5.660530 -14.837580
2.868374 -6.201340 -14.800920
2.109632 -5.793810 -14.905430
2.288566 -5.705290 -14.720370
6.175120 2.743466 -13.631870
3.593520 3.886909 -16.459290
6.494910 4.125394 -14.638550
3.350270 3.395288 -16.555000
6.669530 4.054502 -15.412230
2.628770 2.726361 -15.319010
5.171580 4.778094 -15.910930
4.154450 4.747302 -15.860100
4.890680 4.433028 -16.345490
6.535460 3.962705 -14.602140
6.098230 2.153041 -12.908750
2.843380 1.574510 -13.699730
5.544730 4.553415 -15.250690
2.417050 2.061183 -15.102320
4.780500 1.126777 -12.909960
6.527540 4.185854 -14.228720
5.511710 1.261764 -12.585610
6.254650 2.451522 -13.023220
5.768320 1.562472 -12.740430
4.805340 0.876000 -12.756150
3.451020 4.548242 -15.225730
6.357630 4.012474 -13.681940
4.363470 0.635075 -12.913800
-5.951713 3.394272 -11.885870
-5.331948 3.374005 -12.020956
-5.345762 3.155255 -12.252479
-5.232972 2.902786 -12.550974
-5.319070 2.922537 -12.695706
-5.092204 3.669476 -11.730697
-5.351591 3.366243 -11.916817
-5.508937 2.833786 -12.442256
-5.450987 2.701307 -12.681432
-5.796031 3.063654 -11.712808
-5.584263 3.163961 -11.859399
-5.357138 2.880194 -12.135203
-5.646686 2.851533 -12.315133
-5.539785 2.697183 -12.533914
-5.653568 2.995242 -11.815333
-5.660023 2.747637 -12.098503
-5.612233 2.586912 -12.359833
-5.614981 2.645513 -12.459568
-4.740879 1.727440 -12.853990
-3.709616 2.634335 -12.235620
-3.511066 2.805535 -11.952290
-5.928592 2.327115 -12.191510
-3.676206 4.368230 -11.830680
-3.389144 2.959735 -11.972380
-4.971690 2.179770 -12.229350
-5.632345 2.981580 -12.358290
-3.687941 2.799880 -12.382100
-4.230542 3.559450 -11.906120
-3.782278 3.369150 -12.155730
-5.730934 1.521800 -14.069650
-5.750742 1.483530 -14.057830
-5.843295 1.600890 -13.872610
-5.755506 1.728380 -13.580180
-5.692288 1.626600 -13.752900
-5.725485 1.553990 -13.867730
-5.461333 1.714260 -13.970590
-5.327981 1.861250 -14.009800
-5.419907 1.996890 -13.430300
-5.428031 1.739470 -13.587230
-5.266558 1.646560 -13.843120
-5.060035 1.682630 -13.991170
-5.231482 1.927410 -13.433080
-5.162499 1.779390 -13.595500
-5.021901 1.783240 -13.731430
-4.930711 1.932230 -13.473740
-2.486149 -1.024690 -17.641810
-1.687024 -0.476510 -18.234990
-2.708900 -1.577310 -17.955580
-2.281835 -0.808170 -17.746800
-1.706151 -0.523590 -18.077000
-0.974685 -1.708190 -16.443270
-1.634864 -2.125020 -16.594700
-0.883303 -2.135420 -16.524030
-1.201870 -0.899010 -16.962160
-1.429900 -1.853970 -16.474670
-2.226334 -2.324760 -17.098840
-2.429748 -1.869090 -17.944300
-1.630933 -1.189750 -17.006370
-1.183572 -1.015520 -17.233130
-1.931524 -2.185220 -16.900080
-0.631887 -1.580760 -16.947960
-1.276422 -2.118940 -16.806160
-0.357445 -1.361820 -17.475310
-1.567321 -1.337090 -17.213990
-1.323619 -1.463970 -17.185620
-1.181069 -1.417520 -17.431900
0.408451 -5.264340 -17.105960
2.745471 -4.708180 -16.589940
2.430132 -3.576020 -17.252330
2.014151 -3.214800 -17.951890
0.625487 -5.111700 -16.977600
2.535053 -5.207370 -16.554000
1.533970 -3.307850 -18.161730
2.736399 -4.169190 -16.971540
0.862925 -3.653670 -18.610980
2.470535 -4.385560 -16.727490
1.110604 -3.617240 -17.787570
0.516014 -4.576200 -17.495020
2.126216 -4.603940 -16.686880
2.143842 -4.400190 -16.773450
1.104361 -4.629790 -16.862580
0.840309 -4.108550 -17.458370
1.831595 -3.501440 -17.731620
0.746736 -4.086390 -17.726480
0.675507 -4.345970 -17.551060
1.707291 -3.419780 -18.311690
1.443661 -4.217060 -16.943580
1.425686 -4.134300 -17.060170
1.639329 -4.079120 -17.071020
1.807904 -4.028100 -17.101390
1.487940 -3.625100 -17.774450
CELLS 8283 41415
4 71 1651 1851 171 
4 1651 1652 1852 1851 
4 1652 1653 1853 1852 
4 1653 1654 1854 1853 
4 1654 1655 1855 1854 
4 1655 1656 1856 1855 
4 1656 1657 1857 1856 
4 1657 1658 1858 1857 
4 1658 1659 1859 1858 
4 1659 1660 1860 1859 
4 1660 1661 1861 1860 
4 1661 1662 1862 1861 
4 1662 1663 1863 1862 
4 1663 1664 1864 1863 
4 1664 1665 1865 1864 
4 1665 1666 1866 1865 
4 1666 1667 1867 1866 
4 1667 1668 1868 1867 
4 1668 1669 1869 1868 
4 1669 1670 1870 1869 
4 1670 1671 1871 1870 
4 1671 1672 1872 1871 
4 1672 1673 1873 1872 
4 1673 1674 1874 1873 
4 1674 1675 1875 1874 
4 1675 1676 1876 1875 
4 1676 1677 1877 1876 
4 1677 1678 1878 1877 
4 1678 1679 1879 1878 
4 1679 1680 1880 1879 
4 1680 1681 1881 1880 
4 1681 1682 1882 1881 
4 1682 1683 1883 1882 
4 1683 1684 1884 1883 
4 1684 1685 1885 1884 
4 1685 1686 1886 1885 
4 1686 1687 1887 1886 
4 1687 1688 1888 1887 
4 1688 1689 1889 1888 
4 1689 1690 1890 1889 
4 1690 1691 1891 1890 
4 1691 1692 1892 1891 
4 1692 1693 1893 1892 
4 1693 1694 1894 1893 
4 1694 1695 1895 1894 
4 1695 1696 1896 1895 
4 1696 1697 1897 1896 
4 1697 1698 1898 1897 
4 1698 1699 1899 1898 
4 1699 1700 1900 1899 
4 1700 1701 1901 1900 
4 1701 1702 1902 1901 
4 1702 1703 1903 1902 
4 1703 1704 1904 1903 
4 1704 1705 1905 1904 
4 1705 1706 1906 1905 
4 1706 1707 1907 1906 
4 1707 1708 1908 1907 
4 1708 1709 1909 1908 
4 1709 1710 1910 1909 
4 1710 1711 1911 1910 
4 1711 1712 1912 1911 
4 1712 1713 1913 1912 
4 1713 1714 1914 1913 
4 1714 1715 1915 1914 
4 1715 1716 1916 1915 
4 1716 1717 1917 1916 
4 1717 1718 1918 1917 
4 1718 1719 1919 1918 
4 1719 1720 1920 1919 
4 1720 1721 1921 1920 
4 1721 1722 1922 1921 
4 1722 1723 1923 1922 
4 1723 1724 1924 1923 
4 1724 1725 1925 1924 
4 1725 1726 1926 1925 
4 1726 1727 1927 1926 
4 1727 1728 1928 1927 
4 1728 1729 1929 1928 
4 1729 1730 1930 1929 
4 1730 1731 1931 1930 
4 1731 1732 1932 1931 
4 1732 1733 1933 1932 
4 1733 1734 1934 1933 
4 1734 1735 1935 1934 
4 1735 1736 1936 1935 
4 1736 1737 1937 1936 
4 1737 1738 1938 1937 
4 1738 1739 1939 1938 
4 1739 1740 1940 1939 
4 1740 1741 1941 1940 
4 1741 1742 1942 1941 
4 1742 1743 1943 1942 
4 1743 1744 1944 1943 
4 1744 1745 1945 1944 
4 1745 1746 1946 1945 
4 1746 1747 1947 1946 
4 1747 1748 1948 1947 
4 1748 1749 1949 1948 
4 1749 1750 1950 1949 
4 1750 1751 1951 1950 
4 1751 1752 1952 1951 
4 1752 1753 1953 1952 
4 1753 1754 1954 1953 
4 1754 1755 1955 1954 
4 1755 1756 1956 1955 
4 1756 1757 1957 1956 
4 1757 1758 1958 1957 
4 1758 1759 1959 1958 
4 1759 1760 1960 1959 
4 1760 1761 1961 1960 
4 1761 1762 1962 1961 
4 1762 1763 1963 1962 
4 1763 1764 1964 1963 
4 1764 1765 1965 1964 
4 1765 1766 1966 1965 
4 1766 1767 1967 1966 
4 1767 1768 1968 1967 
4 1768 1769 1969 1968 
4 1769 1770 1970 1969 
4 1770 1771 1971 1970 
4 1771 1772 1972 1971 
4 1772 1773 1973 1972 
4 1773 1774 1974 1973 
4 1774 1775 1975 1974 
4 1775 1776 1976 1975 
4 1776 1777 1977 1976 
4 1777 1778 1978 1977 
4 1778 1779 1979 1978 
4 1779 1780 1980 1979 
4 1780 1781 1981 1980 
4 1781 1782 1982 1981 
4 1782 1783 1983 1982 
4 1783 1784 1984 1983 
4 1784 1785 1985 1984 
4 1785 1786 1986 1985 
4 1786 1787 1987 1986 
4 1787 1788 1988 1987 
4 1788 1789 1989 1988 
4 1789 1790 1990 1989 
4 1790 1791 1991 1990 
4 1791 1792 1992 1991 
4 1792 1793 1993 1992 
4 1793 1794 1994 1993 
4 1794 1795 1995 1994 
4 1795 1796 1996 1995 
4 1796 1797 1997 1996 
4 1797 1798 1998 1997 
4 1798 1799 1999 1998 
4 1799 1800 2000 1999 
4 1800 1801 2001 2000 
4 1801 1802 2002 2001 
4 1802 1803 2003 2002 
4 1803 1804 2004 2003 
4 1804 1805 2005 2004 
4 171 1851 2006 170 
4 1851 1852 2007 2006 
4 1852 1853 2008 2007 
4 1853 1854 2009 2008 
4 1854 1855 2010 2009 
4 1855 1856 2011 2010 
4 1856 1857 2012 2011 
4 1857 1858 2013 2012 
4 1858 1859 2014 2013 
4 1859 1860 2015 2014 
4 1860 1861 2016 2015 
4 1861 1862 2017 2016 
4 1862 1863 2018 2017 
4 1863 1864 2019 2018 
4 1864 1865 2020 2019 
4 1865 1866 2021 2020 
4 1866 1867 2022 2021 
4 1867 1868 2023 2022 
4 1868 1869 2024 2023 
4 1869 1870 2025 2024 
4 1870 1871 2026 2025 
4 1871 1872 2027 2026 
4 1872 1873 2028 2027 
4 1873 1874 2029 2028 
4 1874 1875 2030 2029 
4 1875 1876 2031 2030 
4 1876 1877 2032 2031 
4 1877 1878 2033 2032 
4 1878 1879 2034 2033 
4 1879 1880 2035 2034 
4 1880 1881 2036 2035 
4 1881 1882 2037 2036 
4 1882 1883 2038 2037 
4 1883 1884 2039 2038 
4 1884 1885 2040 2039 
4 1885 1886 2041 2040 
4 1886 1887 2042 2041 
4 1887 1888 2043 2042 
4 1888 1889 2044 2043 
4 1889 1890 2045 2044 
4 1890 1891 2046 2045 
4 1891 1892 2047 2046 
4 1892 1893 2048 2047 
4 1893 1894 2049 2048 
4 1894 1895 2050 2049 
4 1895 1896 2051 2050 
4 1896 1897 2052 2051 
4 1898 1899 2052 1897 
4 1899 1900 2053 2052 
4 1900 1901 2054 2053 
4 1901 1902 2055 2054 
4 1902 1903 2056 2055 
4 1903 1904 2057 2056 
4 1904 1905 2058 2057 
4 1905 1906 2059 2058 
4 1906 1907 2060 2059 
4 1907 1908 2061 2060 
4 1908 1909 2062 2061 
4 1909 1910 2063 2062 
4 1910 1911 2064 2063 
4 1911 1912 2065 2064 
4 1912 1913 2066 2065 
4 1913 1914 2067 2066 
4 1914 1915 2068 2067 
4 1916 1917 2068 1915 
4 1917 1918 2069 2068 
4 1918 1919 2070 2069 
4 1919 1920 2071 2070 
4 1920 1921 2072 2071 
4 1921 1922 2073 2072 
4 1922 1923 2074 2073 
4 1923 1924 2075 2074 
4 1924 1925 2076 2075 
4 1925 1926 2077 2076 
4 1926 1927 2078 2077 
4 1927 1928 2079 2078 
4 1928 1929 2080 2079 
4 1929 1930 2081 2080 
4 1930 1931 2082 2081 
4 1931 1932 2083 2082 
4 1932 1933 2084 2083 
4 1933 1934 2085 2084 
4 1934 1935 2086 2085 
4 1935 1936 2087 2086 
4 1936 1937 2088 2087 
4 1937 1938 2089 2088 
4 1938 1939 2090 2089 
4 1939 1940 2091 2090 
4 1940 1941 2092 2091 
4 1941 1942 2093 2092 
4 1942 1943 2094 2093 
4 1943 1944 2095 2094 
4 1944 1945 2096 2095 
4 1945 1946 2097 2096 
4 1946 1947 2098 2097 
4 1947 1948 2099 2098 
4 1948 1949 2100 2099 
4 1949 1950 2101 2100 
4 1950 1951 2102 2101 
4 1951 1952 2103 2102 
4 1952 1953 2104 2103 
4 1953 1954 2105 2104 
4 1954 1955 2106 2105 
4 1955 1956 2107 2106 
4 1956 1957 2108 2107 
4 1957 1958 2109 2108 
4 1958 1959 2110 2109 
4 1959 1960 2111 2110 
4 1960 1961 2112 2111 
4 1961 1962 2113 2112 
4 1962 1963 2114 2113 
4 1963 1964 2115 2114 
4 1964 1965 2116 2115 
4 1965 1966 2117 2116 
4 1966 1967 2118 2117 
4 1967 1968 2119 2118 
4 1968 1969 2120 2119 
4 1969 1970 2121 2120 
4 1970 1971 2122 2121 
4 1971 1972 2123 2122 
4 1972 1973 2124 2123 
4 1973 1974 2125 2124 
4 1974 1975 2126 2125 
4 1975 1976 2127 2126 
4 1976 1977 2128 2127 
4 1977 1978 2129 2128 
4 1978 1979 2130 2129 
4 1979 1980 2131 2130 
4 1980 1981 2132 2131 
4 1981 1982 2133 2132 
4 1982 1983 2134 2133 
4 1983 1984 2135 2134 
4 1984 1985 2136 2135 
4 1985 1986 2137 2136 
4 1986 1987 2138 2137 
4 1987 1988 2139 2138 
4 1988 1989 2140 2139 
4 1989 1990 2141 2140 
4 1990 1991 2142 2141 
4 1991 1992 2143 2142 
4 1992 1993 2144 2143 
4 1993 1994 2145 2144 
4 1994 1995 2146 2145 
4 1995 1996 2147 2146 
4 1996 1997 2148 2147 
4 1997 1998 2149 2148 
4 1998 1999 2150 2149 
4 1999 2000 2151 2150 
4 2000 2001 2152 2151 
4 2001 2002 2153 2152 
4 2002 2003 2154 2153 
4 2003 2004 2155 2154 
4 2004 2005 2156 2155 
4 170 2006 2157 169 
4 2006 2007 2158 2157 
4 2008 2009 2160 2159 
4 2009 2010 2161 2160 
4 2010 2011 2162 2161 
4 2011 2012 2163 2162 
4 2012 2013 2164 2163 
4 2013 2014 2165 2164 
4 2014 2015 2166 2165 
4 2015 2016 2167 2166 
4 2016 2017 2168 2167 
4 2017 2018 2169 2168 
4 2018 2019 2170 2169 
4 2019 2020 2171 2170 
4 2020 2021 2172 2171 
4 2021 2022 2173 2172 
4 2022 2023 2174 2173 
4 2023 2024 2175 2174 
4 2024 2025 2176 2175 
4 2025 2026 2177 2176 
4 2026 2027 2178 2177 
4 2027 2028 2179 2178 
4 2028 2029 2180 2179 
4 2029 2030 2181 2180 
4 2030 2031 2182 2181 
4 2031 2032 2183 2182 
4 2032 2033 2184 2183 
4 2033 2034 2185 2184 
4 2034 2035 2186 2185 
4 2035 2036 2187 2186 
4 2036 2037 2188 2187 
4 2037 2038 2189 2188 
4 2038 2039 2190 2189 
4 2039 2040 2191 2190 
4 2040 2041 2192 2191 
4 2041 2042 2193 2192 
4 2042 2043 2194 2193 
4 2044 2045 2196 2195 
4 2045 2046 2197 2196 
4 2046 2047 2198 2197 
4 2047 2048 2199 2198 
4 2048 2049 2200 2199 
4 2049 2050 2201 2200 
4 2050 2051 2202 2201 
4 2051 2052 2203 2202 
4 2052 2053 2204 2203 
4 2053 2054 2205 2204 
4 2054 2055 2206 2205 
4 2055 2056 2207 2206 
4 2056 2057 2208 2207 
4 2057 2058 2209 2208 
4 2058 2059 2210 2209 
4 2059 2060 2211 2210 
4 2060 2061 2212 2211 
4 2061 2062 2213 2212 
4 2062 2063 2214 2213 
4 2063 2064 2215 2214 
4 2064 2065 2216 2215 
4 2065 2066 2217 2216 
4 2066 2067 2218 2217 
4 2067 2068 2219 2218 
4 2068 2069 2220 2219 
4 2069 2070 2221 2220 
4 2070 2071 2222 2221 
4 2071 2072 2223 2222 
4 2072 2073 2224 2223 
4 2073 2074 2225 2224 
4 2074 2075 2226 2225 
4 2075 2076 2227 2226 
4 2076 2077 2228 2227 
4 2077 2078 2229 2228 
4 2079 2080 2231 2230 
4 2080 2081 2232 2231 
4 2081 2082 2233 2232 
4 2082 2083 2234 2233 
4 2083 2084 2235 2234 
4 2084 2085 2236 2235 
4 2086 2087 2238 2237 
4 2087 2088 2239 2238 
4 2088 2089 2240 2239 
4 2090 2091 2242 2241 
4 2091 2092 2243 2242 
4 2093 2094 2245 2244 
4 2094 2095 2246 2245 
4 2095 2096 2247 2246 
4 2096 2097 2248 2247 
4 2097 2098 2249 2248 
4 2098 2099 2250 2249 
4 2099 2100 2251 2250 
4 2100 2101 2252 2251 
4 2101 2102 2253 2252 
4 2102 2103 2254 2253 
4 2103 2104 2255 2254 
4 2104 2105 2256 2255 
4 2105 2106 2257 2256 
4 2106 2107 2258 2257 
4 2107 2108 2259 2258 
4 2108 2109 2260 2259 
4 2109 2110 2261 2260 
4 2110 2111 2262 2261 
4 2111 2112 2263 2262 
4 2112 2113 2264 2263 
4 2113 2114 2265 2264 
4 2114 2115 2266 2265 
4 2115 2116 2267 2266 
4 2116 2117 2268 2267 
4 2117 2118 2269 2268 
4 2118 2119 2270 2269 
4 2119 2120 2271 2270 
4 2120 2121 2272 2271 
4 2121 2122 2273 2272 
4 2122 2123 2274 2273 
4 2123 2124 2275 2274 
4 2124 2125 2276 2275 
4 2125 2126 2277 2276 
4 2126 2127 2278 2277 
4 2127 2128 2279 2278 
4 2128 2129 2280 2279 
4 2129 2130 2281 2280 
4 2130 2131 2282 2281 
4 2131 2132 2283 2282 
4 2132 2133 2284 2283 
4 2133 2134 2285 2284 
4 2134 2135 2286 2285 
4 2135 2136 2287 2286 
4 2136 2137 2288 2287 
4 2137 2138 2289 2288 
4 2138 2139 2290 2289 
4 2139 2140 2291 2290 
4 2140 2141 2292 2291 
4 2141 2142 2293 2292 
4 2142 2143 2294 2293 
4 2143 2144 2295 2294 
4 2144 2145 2296 2295 
4 2145 2146 2297 2296 
4 2146 2147 2298 2297 
4 2147 2148 2299 2298 
4 2148 2149 2300 2299 
4 2149 2150 2301 2300 
4 2150 2151 2302 2301 
4 2151 2152 2303 2302 
4 2152 2153 2304 2303 
4 2153 2154 2305 2304 
4 2154 2155 2306 2305 
4 2155 2156 2307 2306 
4 2156 2309 2308 2307 
4 2156 2005 2310 2309 
4 1806 1807 2312 2311 
4 1807 1808 2313 2312 
4 1808 1809 2314 2313 
4 1809 1810 2315 2314 
4 1810 1811 2316 2315 
4 1811 1812 2317 2316 
4 1812 1813 2318 2317 
4 1813 1814 2319 2318 
4 1814 1815 2320 2319 
4 1815 1816 2321 2320 
4 1816 1817 2322 2321 
4 1817 1818 2323 2322 
4 1818 1819 2324 2323 
4 1819 1820 2325 2324 
4 1820 1821 2326 2325 
4 1821 1822 2327 2326 
4 1822 1823 2328 2327 
4 1823 1824 2329 2328 
4 1824 1825 2330 2329 
4 1825 1826 2331 2330 
4 1826 1827 2332 2331 
4 1827 1828 2333 2332 
4 1828 1829 2334 2333 
4 1829 2336 2335 2334 
4 1829 1830 2337 2336 
4 2007 2008 2159 2338 
4 2158 2007 2338 2339 
4 2043 2044 2195 2340 
4 2194 2043 2340 2341 
4 1650 1850 2342 1831 
4 1850 1849 2343 2342 
4 1849 1848 2344 2343 
4 1848 1847 2345 2344 
4 1847 1846 2346 2345 
4 1846 1845 2347 2346 
4 1845 1844 2348 2347 
4 1844 1843 2349 2348 
4 1843 1842 2350 2349 
4 1842 1841 2351 2350 
4 1841 1840 2352 2351 
4 1840 1839 2353 2352 
4 1839 1838 2354 2353 
4 1838 1837 2355 2354 
4 1837 1836 2356 2355 
4 1836 1835 2357 2356 
4 1835 1834 2358 2357 
4 1834 1833 2359 2358 
4 1833 1832 2360 2359 
4 1832 1520 1649 2360 
4 1649 1648 2361 2360 
4 1648 1647 2362 2361 
4 1647 1646 2363 2362 
4 1646 1645 2364 2363 
4 1645 1644 2365 2364 
4 1644 1643 2366 2365 
4 1643 1642 2367 2366 
4 1642 1641 2368 2367 
4 1641 1640 2369 2368 
4 1640 1639 2370 2369 
4 1639 1638 2371 2370 
4 1638 1637 2372 2371 
4 1637 1636 2373 2372 
4 1636 1635 2374 2373 
4 1635 1634 2375 2374 
4 1634 1633 2376 2375 
4 1633 1632 2377 2376 
4 1632 1631 2378 2377 
4 1631 1630 2379 2378 
4 1630 1629 2380 2379 
4 1629 1628 2381 2380 
4 1628 1627 2382 2381 
4 1627 1626 2383 2382 
4 1626 1625 2384 2383 
4 1625 1624 2385 2384 
4 1624 1623 2386 2385 
4 1623 1622 2387 2386 
4 1622 1621 2388 2387 
4 1621 1620 2389 2388 
4 1620 1619 2390 2389 
4 1619 1618 2391 2390 
4 1618 1617 2392 2391 
4 1617 1616 2393 2392 
4 1616 1615 2394 2393 
4 1615 1614 2395 2394 
4 1614 1613 2396 2395 
4 1613 1612 2397 2396 
4 1612 1611 2398 2397 
4 1611 1610 2399 2398 
4 1610 1609 2400 2399 
4 1609 1608 2401 2400 
4 1608 1607 2402 2401 
4 1607 1606 2403 2402 
4 1606 1605 2404 2403 
4 1605 1604 2405 2404 
4 1604 1603 2406 2405 
4 1603 1602 2407 2406 
4 1602 1601 2408 2407 
4 1601 1600 2409 2408 
4 1600 1599 2410 2409 
4 1599 1598 2411 2410 
4 1598 1597 2412 2411 
4 1597 1596 2413 2412 
4 1596 1595 2414 2413 
4 1595 1594 2415 2414 
4 1594 1593 2416 2415 
4 1593 1592 2417 2416 
4 1592 1591 2418 2417 
4 1591 1590 2419 2418 
4 1590 1589 2420 2419 
4 1589 1588 2421 2420 
4 1588 1587 2422 2421 
4 1587 1586 2423 2422 
4 1586 1585 2424 2423 
4 1585 1584 2425 2424 
4 1584 1583 2426 2425 
4 1583 1582 2427 2426 
4 1582 1581 2428 2427 
4 1581 1580 2429 2428 
4 1580 1579 2430 2429 
4 1579 1578 2431 2430 
4 1578 1577 2432 2431 
4 1577 1576 2433 2432 
4 1576 1575 2434 2433 
4 1575 1574 2435 2434 
4 1574 1573 2436 2435 
4 1573 1572 2437 2436 
4 1572 1571 2438 2437 
4 1571 1570 2439 2438 
4 1570 1569 2440 2439 
4 1569 1568 2441 2440 
4 1568 1567 2442 2441 
4 1567 1566 2443 2442 
4 1566 1565 2444 2443 
4 1565 1564 2445 2444 
4 1564 1563 2446 2445 
4 1563 1562 2447 2446 
4 1562 1561 2448 2447 
4 1561 1560 2449 2448 
4 1560 1559 2450 2449 
4 1559 1558 2451 2450 
4 1558 1557 2452 2451 
4 1557 1556 2453 2452 
4 1556 1555 2454 2453 
4 1555 1554 2455 2454 
4 1554 1553 2456 2455 
4 1553 1552 2457 2456 
4 1552 1551 2458 2457 
4 1551 1550 2459 2458 
4 1550 1549 2460 2459 
4 1549 1548 2461 2460 
4 1548 1547 2462 2461 
4 1547 1546 2463 2462 
4 1546 1545 2464 2463 
4 1545 1544 2465 2464 
4 1544 1543 2466 2465 
4 1543 1542 2467 2466 
4 1542 1541 2468 2467 
4 1541 1540 2469 2468 
4 1540 1539 2470 2469 
4 1539 1538 2471 2470 
4 1538 1537 2472 2471 
4 1537 1536 2473 2472 
4 1536 1535 2474 2473 
4 1535 1534 2475 2474 
4 1534 1533 2476 2475 
4 1533 1532 2477 2476 
4 1532 1531 2478 2477 
4 1531 1530 2479 2478 
4 1530 1529 2480 2479 
4 1529 1528 2481 2480 
4 1528 1527 2482 2481 
4 1527 1526 2483 2482 
4 1526 1525 2484 2483 
4 1525 1524 2485 2484 
4 1524 1523 2486 2485 
4 1523 1522 2487 2486 
4 1522 1521 2488 2487 
4 1521 1 157 2488 
4 1830 1831 2342 2337 
4 157 158 2489 2488 
4 158 159 2490 2489 
4 159 160 2491 2490 
4 160 161 2492 2491 
4 161 162 2493 2492 
4 162 163 2494 2493 
4 163 164 2495 2494 
4 164 165 2496 2495 
4 165 166 2497 2496 
4 166 167 2498 2497 
4 167 168 2499 2498 
4 168 169 2157 2499 
4 1806 2311 2500 2310 
4 2311 2312 2501 2500 
4 2312 2313 2502 2501 
4 2314 2315 2504 2503 
4 2315 2316 2505 2504 
4 2316 2317 2506 2505 
4 2317 2318 2507 2506 
4 2318 2319 2508 2507 
4 2319 2320 2509 2508 
4 2320 2321 2510 2509 
4 2321 2322 2511 2510 
4 2322 2323 2512 2511 
4 2323 2324 2513 2512 
4 2324 2325 2326 2513 
4 2313 2314 2503 2514 
4 2502 2313 2514 2515 
4 2344 2345 2516 2542 
4 2345 2346 2517 2516 
4 2346 2347 2518 2517 
4 2347 2348 2519 2518 
4 2348 2349 2520 2519 
4 2349 2350 2521 2520 
4 2350 2351 2522 2521 
4 2351 2352 2523 2522 
4 2352 2353 2524 2523 
4 2353 2354 2525 2524 
4 2354 2355 2526 2525 
4 2355 2356 2527 2526 
4 2356 2357 2528 2527 
4 2357 2358 2529 2528 
4 2358 2359 2530 2529 
4 2359 2360 2361 2530 
4 2326 2327 2531 2513 
4 2327 2328 2532 2531 
4 2328 2329 2533 2532 
4 2329 2330 2534 2533 
4 2330 2331 2535 2534 
4 2331 2332 2536 2535 
4 2332 2333 2537 2536 
4 2333 2334 2538 2537 
4 2334 2335 2539 2538 
4 2335 2541 2540 2539 
4 2335 2336 2542 2541 
4 2092 2093 2244 2543 
4 2243 2092 2543 2544 
4 2085 2086 2237 2545 
4 2236 2085 2545 2546 
4 2078 2079 2230 2547 
4 2229 2078 2547 2548 
4 2089 2090 2241 2549 
4 2240 2089 2549 2550 
4 2361 2362 2551 2530 
4 2362 2363 2552 2551 
4 2363 2364 2553 2552 
4 2364 2365 2554 2553 
4 2365 2366 2555 2554 
4 2366 2367 2556 2555 
4 2367 2368 2557 2556 
4 2368 2369 2558 2557 
4 2369 2370 2559 2558 
4 2370 2371 2560 2559 
4 2371 2372 2561 2560 
4 2372 2373 2562 2561 
4 2373 2374 2563 2562 
4 2374 2375 2564 2563 
4 2375 2376 2565 2564 
4 2376 2377 2566 2565 
4 2377 2378 2567 2566 
4 2378 2379 2568 2567 
4 2379 2380 2569 2568 
4 2380 2381 2570 2569 
4 2381 2382 2571 2570 
4 2382 2383 2572 2571 
4 2383 2384 2573 2572 
4 2384 2385 2574 2573 
4 2385 2386 2575 2574 
4 2386 2387 2576 2575 
4 2387 2388 2577 2576 
4 2388 2389 2578 2577 
4 2389 2390 2579 2578 
4 2390 2391 2580 2579 
4 2391 2392 2581 2580 
4 2392 2393 2582 2581 
4 2393 2394 2583 2582 
4 2394 2395 2584 2583 
4 2395 2396 2585 2584 
4 2396 2397 2586 2585 
4 2397 2398 2587 2586 
4 2398 2399 2588 2587 
4 2399 2400 2589 2588 
4 2400 2401 2590 2589 
4 2401 2402 2591 2590 
4 2402 2403 2592 2591 
4 2403 2404 2593 2592 
4 2404 2405 2594 2593 
4 2405 2406 2595 2594 
4 2406 2407 2596 2595 
4 2407 2408 2597 2596 
4 2408 2409 2598 2597 
4 2409 2410 2599 2598 
4 2410 2411 2600 2599 
4 2411 2412 2601 2600 
4 2412 2413 2602 2601 
4 2413 2414 2603 2602 
4 2414 2415 2604 2603 
4 2415 2416 2605 2604 
4 2416 2417 2606 2605 
4 2417 2418 2607 2606 
4 2418 2419 2608 2607 
4 2419 2420 2609 2608 
4 2420 2421 2610 2609 
4 2421 2422 2611 2610 
4 2422 2423 2612 2611 
4 2423 2424 2613 2612 
4 2424 2425 2614 2613 
4 2425 2426 2615 2614 
4 2426 2427 2616 2615 
4 2427 2428 2617 2616 
4 2428 2429 2618 2617 
4 2429 2430 2619 2618 
4 2430 2431 2620 2619 
4 2431 2432 2621 2620 
4 2432 2433 2622 2621 
4 2433 2434 2623 2622 
4 2434 2435 2624 2623 
4 2435 2436 2625 2624 
4 2436 2437 2626 2625 
4 2437 2438 2627 2626 
4 2438 2439 2628 2627 
4 2439 2440 2629 2628 
4 2440 2441 2630 2629 
4 2441 2442 2631 2630 
4 2442 2443 2632 2631 
4 2443 2444 2633 2632 
4 2444 2445 2634 2633 
4 2445 2446 2635 2634 
4 2446 2447 2636 2635 
4 2447 2448 2637 2636 
4 2448 2449 2638 2637 
4 2449 2450 2639 2638 
4 2450 2451 2640 2639 
4 2451 2452 2641 2640 
4 2452 2453 2642 2641 
4 2453 2454 2643 2642 
4 2454 2455 2644 2643 
4 2455 2456 2645 2644 
4 2456 2457 2646 2645 
4 2457 2458 2647 2646 
4 2458 2459 2648 2647 
4 2459 2460 2649 2648 
4 2460 2461 2650 2649 
4 2461 2462 2651 2650 
4 2462 2463 2652 2651 
4 2463 2464 2653 2652 
4 2464 2465 2654 2653 
4 2465 2466 2655 2654 
4 2466 2467 2656 2655 
4 2467 2468 2657 2656 
4 2468 2469 2658 2657 
4 2469 2470 2659 2658 
4 2470 2471 2660 2659 
4 2471 2472 2661 2660 
4 2472 2473 2662 2661 
4 2473 2474 2663 2662 
4 2474 2475 2664 2663 
4 2475 2476 2665 2664 
4 2476 2477 2666 2665 
4 2477 2478 2667 2666 
4 2478 2479 2668 2667 
4 2479 2480 2669 2668 
4 2480 2481 2670 2669 
4 2481 2482 2671 2670 
4 2482 2483 2672 2671 
4 2483 2484 2673 2672 
4 2484 2485 2674 2673 
4 2485 2486 2675 2674 
4 2486 2487 2676 2675 
4 2487 2488 2489 2676 
4 2489 2490 2677 2676 
4 2490 2491 2678 2677 
4 2491 2492 2679 2678 
4 2492 2493 2680 2679 
4 2493 2494 2681 2680 
4 2494 2495 2682 2681 
4 2495 2496 2683 2682 
4 2496 2497 2684 2683 
4 2497 2498 2685 2684 
4 2498 2499 2686 2685 
4 2499 2157 2158 2686 
4 2513 2531 2687 2512 
4 2531 2532 2688 2687 
4 2532 2533 2689 2688 
4 2533 2534 2690 2689 
4 2534 2535 2691 2690 
4 2535 2536 2692 2691 
4 2536 2537 2693 2692 
4 2537 2538 2694 2693 
4 2538 2539 2695 2694 
4 2539 2540 2696 2695 
4 2540 2698 2697 2696 
4 2540 2541 2699 2698 
4 2541 2542 2516 2699 
4 2310 2500 2700 2309 
4 2500 2501 2701 2700 
4 2501 2502 2702 2701 
4 2502 2515 2703 2702 
4 2515 2705 2704 2703 
4 2515 2514 2706 2705 
4 2514 2503 2707 2706 
4 2503 2504 2708 2707 
4 2504 2505 2709 2708 
4 2505 2506 6679 2709 
4 2508 2509 2711 6680 
4 2509 2510 2712 2711 
4 2510 2511 2713 2712 
4 2511 2512 2687 2713 
4 2530 2551 2714 2529 
4 2551 2552 2715 2714 
4 2552 2553 2716 2715 
4 2553 2554 2717 2716 
4 2554 2555 2718 2717 
4 2555 2556 2719 2718 
4 2556 2557 2720 2719 
4 2557 2558 2721 2720 
4 2558 2559 2722 2721 
4 2559 2560 2723 2722 
4 2560 2561 2724 2723 
4 2561 2562 2725 2724 
4 2562 2563 2726 2725 
4 2563 2564 2727 2726 
4 2564 2565 2728 2727 
4 2565 2566 2729 2728 
4 2566 2567 2730 2729 
4 2567 2568 2731 2730 
4 2568 2569 2732 2731 
4 2569 2570 2733 2732 
4 2570 2571 2734 2733 
4 2571 2572 2735 2734 
4 2572 2573 2736 2735 
4 2573 2574 2737 2736 
4 2574 2575 2738 2737 
4 2575 2576 2739 2738 
4 2576 2577 2740 2739 
4 2577 2578 2741 2740 
4 2578 2579 2742 2741 
4 2579 2580 2743 2742 
4 2580 2581 2744 2743 
4 2581 2582 2745 2744 
4 2582 2583 2746 2745 
4 2583 2584 2747 2746 
4 2584 2585 2748 2747 
4 2585 2586 2749 2748 
4 2586 2587 2750 2749 
4 2587 2588 2751 2750 
4 2588 2589 2752 2751 
4 2589 2590 2753 2752 
4 2590 2591 2754 2753 
4 2591 2592 2755 2754 
4 2592 2593 2756 2755 
4 2593 2594 2757 2756 
4 2594 2595 2758 2757 
4 2595 2596 2759 2758 
4 2596 2597 2760 2759 
4 2597 2598 2761 2760 
4 2598 2599 2762 2761 
4 2599 2600 2763 2762 
4 2600 2601 2764 2763 
4 2601 2602 2765 2764 
4 2602 2603 2766 2765 
4 2603 2604 2767 2766 
4 2604 2605 2768 2767 
4 2605 2606 2769 2768 
4 2606 2607 2770 2769 
4 2607 2608 2771 2770 
4 2608 2609 2772 2771 
4 2609 2610 2773 2772 
4 2610 2611 2774 2773 
4 2611 2612 2775 2774 
4 2612 2613 2776 2775 
4 2613 2614 2777 2776 
4 2614 2615 2778 2777 
4 2615 2616 2779 2778 
4 2616 2617 2780 2779 
4 2617 2618 2781 2780 
4 2618 2619 2782 2781 
4 2619 2620 2783 2782 
4 2620 2621 2784 2783 
4 2621 2622 2785 2784 
4 2622 2623 2786 2785 
4 2623 2624 2787 2786 
4 2624 2625 2788 2787 
4 2625 2626 2789 2788 
4 2626 2627 2790 2789 
4 2627 2628 2791 2790 
4 2628 2629 2792 2791 
4 2629 2630 2793 2792 
4 2630 2631 2794 2793 
4 2631 2632 2795 2794 
4 2632 2633 2796 2795 
4 2633 2634 2797 2796 
4 2634 2635 2798 2797 
4 2635 2636 2799 2798 
4 2636 2637 2800 2799 
4 2637 2638 2801 2800 
4 2638 2639 2802 2801 
4 2639 2640 2803 2802 
4 2640 2641 2804 2803 
4 2641 2642 2805 2804 
4 2642 2643 2806 2805 
4 2643 2644 2807 2806 
4 2644 2645 2808 2807 
4 2645 2646 2809 2808 
4 2646 2647 2810 2809 
4 2647 2648 2811 2810 
4 2648 2649 2812 2811 
4 2649 2650 2813 2812 
4 2650 2651 2814 2813 
4 2651 2652 2815 2814 
4 2652 2653 2816 2815 
4 2653 2654 2817 2816 
4 2654 2655 2818 2817 
4 2655 2656 2819 2818 
4 2656 2657 2820 2819 
4 2657 2658 2821 2820 
4 2658 2659 2822 2821 
4 2659 2660 2823 2822 
4 2660 2661 2824 2823 
4 2661 2662 2825 2824 
4 2662 2663 2826 2825 
4 2663 2664 2827 2826 
4 2664 2665 2828 2827 
4 2665 2666 2829 2828 
4 2666 2667 2830 2829 
4 2667 2668 2831 2830 
4 2668 2669 2832 2831 
4 2669 2670 2833 2832 
4 2670 2671 2834 2833 
4 2671 2672 2835 2834 
4 2672 2673 2836 2835 
4 2673 2674 2837 2836 
4 2674 2675 2838 2837 
4 2675 2676 2677 2838 
4 2677 2678 2839 2838 
4 2678 2679 2840 2839 
4 2679 2680 2841 2840 
4 2680 2681 2842 2841 
4 2681 2682 2843 2842 
4 2682 2683 2844 2843 
4 2683 2684 2845 2844 
4 2684 2685 2846 2845 
4 2685 2686 2847 2846 
4 2686 2158 2339 2847 
4 2516 2517 2848 2699 
4 2517 2518 2849 2848 
4 2518 2519 2850 2849 
4 2519 2520 2851 2850 
4 2520 2521 2852 2851 
4 2521 2522 2853 2852 
4 2522 2523 2854 2853 
4 2523 2524 2855 2854 
4 2524 2525 2856 2855 
4 2525 2526 2857 2856 
4 2526 2527 2858 2857 
4 2527 2528 2859 2858 
4 2528 2529 2714 2859 
4 2838 2839 2860 2837 
4 2839 2840 2861 2860 
4 2840 2841 2862 2861 
4 2841 2842 2863 2862 
4 2842 2843 2864 2863 
4 2843 2844 2865 2864 
4 2844 2845 2866 2865 
4 2845 2846 2867 2866 
4 2846 2847 2868 2867 
4 2847 2339 2869 2868 
4 2339 2338 2870 2869 
4 2338 2159 2871 2870 
4 2159 2160 2872 2871 
4 2160 2161 2873 2872 
4 2161 2162 2874 2873 
4 2162 2163 2875 2874 
4 2163 2164 2876 2875 
4 2164 2165 2877 2876 
4 2165 2166 2878 2877 
4 2166 2167 2879 2878 
4 2167 2168 2880 2879 
4 2168 2169 2881 2880 
4 2169 2170 2882 2881 
4 2170 2171 2883 2882 
4 2171 2172 2884 2883 
4 2172 2173 2885 2884 
4 2173 2174 2886 2885 
4 2174 2175 2887 2886 
4 2175 2176 2888 2887 
4 2176 2177 2889 2888 
4 2177 2178 2890 2889 
4 2178 2179 2891 2890 
4 2179 2180 2892 2891 
4 2180 2181 2893 2892 
4 2181 2182 2894 2893 
4 2182 2183 2895 2894 
4 2183 2184 2896 2895 
4 2185 2186 2896 2184 
4 2186 2187 2897 2896 
4 2187 2188 2898 2897 
4 2188 2189 2899 2898 
4 2189 2190 2900 2899 
4 2190 2191 2901 2900 
4 2191 2192 2902 2901 
4 2192 2193 2903 2902 
4 2193 2194 2904 2903 
4 2194 2341 2905 2904 
4 2341 2907 2906 2905 
4 2341 2340 2908 2907 
4 2340 2195 2909 2908 
4 2195 2196 2910 2909 
4 2196 2197 2911 2910 
4 2197 2198 2912 2911 
4 2198 2199 2913 2912 
4 2199 2200 2914 2913 
4 2200 2201 2915 2914 
4 2201 2202 2916 2915 
4 2202 2203 2917 2916 
4 2203 2204 2918 2917 
4 2204 2205 2919 2918 
4 2205 2206 2920 2919 
4 2206 2207 2921 2920 
4 2207 2208 2922 2921 
4 2208 2209 2923 2922 
4 2209 2210 2924 2923 
4 2210 2211 2925 2924 
4 2211 2212 2926 2925 
4 2212 2213 2927 2926 
4 2213 2214 2928 2927 
4 2214 2215 2929 2928 
4 2216 2217 2929 2215 
4 2217 2218 2930 2929 
4 2218 2219 2931 2930 
4 2219 2220 2932 2931 
4 2220 2221 2933 2932 
4 2221 2222 2934 2933 
4 2222 2223 2935 2934 
4 2223 2224 2936 2935 
4 2225 2226 2936 2224 
4 2226 2227 2937 2936 
4 2227 2228 2938 2937 
4 2228 2229 2939 2938 
4 2229 2548 2940 2939 
4 2548 2942 2941 2940 
4 2548 2547 2943 2942 
4 2547 2230 2944 2943 
4 2230 2231 2945 2944 
4 2231 2232 2946 2945 
4 2232 2233 2947 2946 
4 2233 2234 2948 2947 
4 2234 2235 2949 2948 
4 2235 2236 2950 2949 
4 2236 2546 2951 2950 
4 2546 2953 2952 2951 
4 2546 2545 2954 2953 
4 2545 2237 2955 2954 
4 2237 2238 2956 2955 
4 2238 2239 2957 2956 
4 2239 2240 2958 2957 
4 2240 2550 2959 2958 
4 2550 2961 2960 2959 
4 2550 2549 2962 2961 
4 2549 2241 2963 2962 
4 2241 2242 2964 2963 
4 2242 2243 2965 2964 
4 2243 2544 2966 2965 
4 2544 2968 2967 2966 
4 2544 2543 2969 2968 
4 2543 2244 2970 2969 
4 2244 2245 2971 2970 
4 2245 2246 2972 2971 
4 2246 2247 2973 2972 
4 2247 2248 2974 2973 
4 2248 2249 2975 2974 
4 2249 2250 2976 2975 
4 2250 2251 2977 2976 
4 2251 2252 2253 2977 
4 2253 2254 3147 2977 
4 2254 2255 2978 3147 
4 2255 2256 2979 2978 
4 2256 2257 2980 2979 
4 2257 2258 2981 2980 
4 2258 2259 2982 2981 
4 2259 2260 2983 2982 
4 2260 2261 2984 2983 
4 2261 2262 2985 2984 
4 2262 2263 2986 2985 
4 2263 2264 2987 2986 
4 2264 2265 2988 2987 
4 2265 2266 2989 2988 
4 2266 2267 2990 2989 
4 2267 2268 2991 2990 
4 2268 2269 2992 2991 
4 2269 2270 2993 2992 
4 2270 2271 2994 2993 
4 2271 2272 2995 2994 
4 2272 2273 2996 2995 
4 2273 2274 2997 2996 
4 2274 2275 2998 2997 
4 2275 2276 2999 2998 
4 2276 2277 3000 2999 
4 2277 2278 3001 3000 
4 2278 2279 3002 3001 
4 2279 2280 3003 3002 
4 2280 2281 3004 3003 
4 2281 2282 3005 3004 
4 2282 2283 3006 3005 
4 2283 2284 3007 3006 
4 2284 2285 3008 3007 
4 2285 2286 3009 3008 
4 2286 2287 3010 3009 
4 2287 2288 3011 3010 
4 2288 2289 3012 3011 
4 2289 2290 3013 3012 
4 2290 2291 3014 3013 
4 2291 2292 3015 3014 
4 2292 2293 3016 3015 
4 2293 2294 3017 3016 
4 2294 2295 3018 3017 
4 2295 2296 3019 3018 
4 2296 2297 3020 3019 
4 2297 2298 3021 3020 
4 2298 2299 3022 3021 
4 2299 2300 3423 3022 
4 2300 2301 3422 3423 
4 2301 2302 3023 3422 
4 2302 2303 3024 3023 
4 2303 2304 3025 3024 
4 2304 2305 3026 3025 
4 2306 2307 3028 3027 
4 2307 2308 3029 3028 
4 2308 3031 3030 3029 
4 2308 2309 2700 3031 
4 2837 2860 2835 2836 
4 2860 2861 3299 2835 
4 2861 2862 3032 3299 
4 2862 2863 3033 3032 
4 2863 2864 3034 3033 
4 2864 2865 3035 3034 
4 2865 2866 3036 3035 
4 2866 2867 3037 3036 
4 2867 2868 3038 3037 
4 2868 2869 3039 3038 
4 2869 2870 3040 3039 
4 2870 2871 3041 3040 
4 2871 2872 3042 3041 
4 2872 2873 3043 3042 
4 2873 2874 3044 3043 
4 2874 2875 3045 3044 
4 2875 2876 3046 3045 
4 2876 2877 3047 3046 
4 2877 2878 3048 3047 
4 2878 2879 3049 3048 
4 2879 2880 3050 3049 
4 2880 2881 3051 3050 
4 2881 2882 3052 3051 
4 2882 2883 3053 3052 
4 2883 2884 3054 3053 
4 2884 2885 3055 3054 
4 2885 2886 3056 3055 
4 2886 2887 3057 3056 
4 2887 2888 3058 3057 
4 2888 2889 3059 3058 
4 2889 2890 3060 3059 
4 2890 2891 3061 3060 
4 2891 2892 3062 3061 
4 2892 2893 3063 3062 
4 2893 2894 3064 3063 
4 2894 2895 3065 3064 
4 2895 2896 3066 3065 
4 2896 2897 3067 3066 
4 2898 2899 3067 2897 
4 2899 2900 3068 3067 
4 2901 2902 3070 3069 
4 2902 2903 3071 3070 
4 2903 2904 3072 3071 
4 2904 2905 3073 3072 
4 2905 2906 3074 3073 
4 2906 3076 3075 3074 
4 2906 2907 3077 3076 
4 2907 2908 3078 3077 
4 2908 2909 3079 3078 
4 2909 2910 3080 3079 
4 2910 2911 3081 3080 
4 2911 2912 3082 3081 
4 2912 2913 3083 3082 
4 2913 2914 6682 3083 
4 2916 2917 3084 2915 
4 2917 2918 3085 3084 
4 2918 2919 3086 3085 
4 2919 2920 3087 3086 
4 2920 2921 3088 3087 
4 2921 2922 3089 3088 
4 2922 2923 3090 3089 
4 2923 2924 3091 3090 
4 2924 2925 3092 3091 
4 2925 2926 3093 3092 
4 2926 2927 3094 3093 
4 2927 2928 3095 3094 
4 2928 2929 3096 3095 
4 2929 2930 3097 3096 
4 2930 2931 3098 3097 
4 2931 2932 3099 3098 
4 2932 2933 3100 3099 
4 2933 2934 3101 3100 
4 2934 2935 3102 3101 
4 2935 2936 3103 3102 
4 2936 2937 3104 3103 
4 2937 2938 3105 3104 
4 2938 2939 3106 3105 
4 2939 2940 3627 3106 
4 2940 2941 3626 3627 
4 2941 3108 3107 3626 
4 2941 2942 3109 3108 
4 2942 2943 3110 3109 
4 2943 2944 3111 3110 
4 2944 2945 3112 3111 
4 2945 2946 3113 3112 
4 2946 2947 3114 3113 
4 2947 2948 3115 3114 
4 2948 2949 3116 3115 
4 2949 2950 3117 3116 
4 2950 2951 3118 3117 
4 2951 2952 3119 3118 
4 2952 3121 3120 3119 
4 2952 2953 3122 3121 
4 2953 2954 3123 3122 
4 2954 2955 3124 3123 
4 2955 2956 3125 3124 
4 2956 2957 3126 3125 
4 2957 2958 3127 3126 
4 2958 2959 3128 3127 
4 2959 2960 3129 3128 
4 2960 3131 3130 3129 
4 2960 2961 3132 3131 
4 2961 2962 3133 3132 
4 2962 2963 3134 3133 
4 2963 2964 3135 3134 
4 2964 2965 3136 3135 
4 2965 2966 3137 3136 
4 2966 2967 3138 3137 
4 2967 3140 3139 3138 
4 2967 2968 3151 3140 
4 2968 2969 3141 3151 
4 2969 2970 2971 3141 
4 2971 2972 3142 3141 
4 2972 2973 3143 3142 
4 2973 2974 3144 3143 
4 2974 2975 3145 3144 
4 2975 2976 3146 3145 
4 2976 2977 3147 3146 
4 3141 3142 3150 3151 
4 3142 3143 3152 3150 
4 3143 3144 3153 3152 
4 2700 2701 3154 3031 
4 2701 2702 3155 3154 
4 2702 2703 3156 3155 
4 2703 2704 3157 3156 
4 2704 3159 3158 3157 
4 2704 2705 3160 3159 
4 2705 2706 3161 3160 
4 2706 2707 3162 3161 
4 2707 2708 3163 3162 
4 2708 2709 3164 3163 
4 2709 6679 3165 3164 
4 6680 2711 3166 3165 
4 2711 2712 3167 3166 
4 2712 2713 3168 3167 
4 2713 2687 3169 3168 
4 2687 2688 3170 3169 
4 2688 2689 3171 3170 
4 2689 2690 3172 3171 
4 2690 2691 3173 3172 
4 2691 2692 3174 3173 
4 2692 2693 3175 3174 
4 2693 2694 3176 3175 
4 2695 2696 3176 2694 
4 2696 2697 3177 3176 
4 2697 3179 3178 3177 
4 2697 2698 3180 3179 
4 2698 2699 2848 3180 
4 2714 2715 3181 2859 
4 2715 2716 3182 3181 
4 2716 2717 3183 3182 
4 2717 2718 3184 3183 
4 2718 2719 3185 3184 
4 2719 2720 3186 3185 
4 2720 2721 3187 3186 
4 2721 2722 3188 3187 
4 2722 2723 3189 3188 
4 2723 2724 3190 3189 
4 2724 2725 3191 3190 
4 2725 2726 3192 3191 
4 2726 2727 3193 3192 
4 2727 2728 3194 3193 
4 2728 2729 3195 3194 
4 2729 2730 3196 3195 
4 2730 2731 3197 3196 
4 2731 2732 3198 3197 
4 2732 2733 3199 3198 
4 2733 2734 3200 3199 
4 2734 2735 3201 3200 
4 2735 2736 3202 3201 
4 2737 2738 3202 2736 
4 2738 2739 3203 3202 
4 2739 2740 3204 3203 
4 2740 2741 3205 3204 
4 2741 2742 3206 3205 
4 2742 2743 3207 3206 
4 2743 2744 3208 3207 
4 2744 2745 3209 3208 
4 2745 2746 3210 3209 
4 2746 2747 3211 3210 
4 2747 2748 3212 3211 
4 2748 2749 3213 3212 
4 2749 2750 3214 3213 
4 2750 2751 3215 3214 
4 2751 2752 3216 3215 
4 2752 2753 3217 3216 
4 2753 2754 3218 3217 
4 2754 2755 3219 3218 
4 2755 2756 3220 3219 
4 2756 2757 3221 3220 
4 2757 2758 3222 3221 
4 2758 2759 3223 3222 
4 2759 2760 3224 3223 
4 2760 2761 3225 3224 
4 2761 2762 3226 3225 
4 2762 2763 3227 3226 
4 2763 2764 3228 3227 
4 2764 2765 3229 3228 
4 2765 2766 3230 3229 
4 2766 2767 3231 3230 
4 2767 2768 3232 3231 
4 2768 2769 3233 3232 
4 2769 2770 3234 3233 
4 2770 2771 3235 3234 
4 2771 2772 3236 3235 
4 2772 2773 3237 3236 
4 2773 2774 3238 3237 
4 2774 2775 3239 3238 
4 2775 2776 3240 3239 
4 2776 2777 3241 3240 
4 2777 2778 3242 3241 
4 2778 2779 3243 3242 
4 2779 2780 3244 3243 
4 2780 2781 3245 3244 
4 2781 2782 3246 3245 
4 2782 2783 3247 3246 
4 2783 2784 3248 3247 
4 2784 2785 3249 3248 
4 2785 2786 3250 3249 
4 2786 2787 3251 3250 
4 2787 2788 3252 3251 
4 2788 2789 3253 3252 
4 2789 2790 3254 3253 
4 2790 2791 3255 3254 
4 2791 2792 3256 3255 
4 2792 2793 3257 3256 
4 2793 2794 3258 3257 
4 2794 2795 3259 3258 
4 2795 2796 3260 3259 
4 2796 2797 3261 3260 
4 2797 2798 3262 3261 
4 2798 2799 3263 3262 
4 2799 2800 3264 3263 
4 2800 2801 3265 3264 
4 2801 2802 3266 3265 
4 2802 2803 3267 3266 
4 2803 2804 3268 3267 
4 2804 2805 3269 3268 
4 2805 2806 3270 3269 
4 2806 2807 3271 3270 
4 2807 2808 3272 3271 
4 2808 2809 3273 3272 
4 2809 2810 3274 3273 
4 2810 2811 3275 3274 
4 2811 2812 3276 3275 
4 2812 2813 3277 3276 
4 2813 2814 3278 3277 
4 2814 2815 3279 3278 
4 2815 2816 3280 3279 
4 2816 2817 3281 3280 
4 2817 2818 3282 3281 
4 2818 2819 3283 3282 
4 2819 2820 3284 3283 
4 2820 2821 3285 3284 
4 2821 2822 3286 3285 
4 2822 2823 3287 3286 
4 2823 2824 3288 3287 
4 2824 2825 3289 3288 
4 2825 2826 3290 3289 
4 2826 2827 3291 3290 
4 2827 2828 3292 3291 
4 2828 2829 3293 3292 
4 2829 2830 3294 3293 
4 2830 2831 3295 3294 
4 2831 2832 3296 3295 
4 2832 2833 3297 3296 
4 2833 2834 3298 3297 
4 2834 2835 3299 3298 
4 2848 2849 3300 3180 
4 2849 2850 3301 3300 
4 2850 2851 3302 3301 
4 2851 2852 3303 3302 
4 2852 2853 3304 3303 
4 2853 2854 3305 3304 
4 2854 2855 3306 3305 
4 2855 2856 3307 3306 
4 2856 2857 3308 3307 
4 2857 2858 3309 3308 
4 2858 2859 3181 3309 
4 3147 2978 3153 3146 
4 2978 2979 3310 3153 
4 2979 2980 3311 3310 
4 2980 2981 3312 3311 
4 2981 2982 3313 3312 
4 2982 2983 3314 3313 
4 2983 2984 3315 3314 
4 2984 2985 3316 3315 
4 2985 2986 3317 3316 
4 2986 2987 3318 3317 
4 2987 2988 3319 3318 
4 2988 2989 3320 3319 
4 2989 2990 3321 3320 
4 2990 2991 3322 3321 
4 2992 2993 3322 2991 
4 2993 2994 3323 3322 
4 2994 2995 3324 3323 
4 2995 2996 3325 3324 
4 2996 2997 3326 3325 
4 2997 2998 3327 3326 
4 2998 2999 6683 3327 
4 3001 3002 3329 6684 
4 3002 3003 3330 3329 
4 3003 3004 3331 3330 
4 3004 3005 3332 3331 
4 3005 3006 3333 3332 
4 3006 3007 3334 3333 
4 3007 3008 3335 3334 
4 3008 3009 3336 3335 
4 3009 3010 3337 3336 
4 3010 3011 3338 3337 
4 3011 3012 3339 3338 
4 3012 3013 3340 3339 
4 3013 3014 3341 3340 
4 3014 3015 3342 3341 
4 3015 3016 3343 3342 
4 3016 3017 3344 3343 
4 3017 3018 3345 3344 
4 3018 3019 3346 3345 
4 3019 3020 3347 3346 
4 3020 3021 3348 3347 
4 3031 3154 3349 3030 
4 3155 3156 3351 3350 
4 3157 3158 3353 3352 
4 3158 3355 3354 3353 
4 3158 3159 3356 3355 
4 3159 3160 3357 3356 
4 3160 3161 3358 3357 
4 3161 3162 3359 3358 
4 3162 3163 3360 3359 
4 3163 3164 3361 3360 
4 3165 3166 3361 3164 
4 3166 3167 3362 3361 
4 3167 3168 3363 3362 
4 3168 3169 3364 3363 
4 3169 3170 3365 3364 
4 3170 3171 3366 3365 
4 3171 3172 3367 3366 
4 3172 3173 3368 3367 
4 3173 3174 3369 3368 
4 3174 3175 3370 3369 
4 3175 3176 3371 3370 
4 3176 3177 3372 3371 
4 3177 3178 3373 3372 
4 3178 3375 3374 3373 
4 3178 3179 3376 3375 
4 3179 3180 3300 3376 
4 3156 3157 3352 3377 
4 3351 3156 3377 3378 
4 3145 3146 3153 3144 
4 2305 2306 3027 3379 
4 3026 2305 3379 3380 
4 3154 3155 3350 3381 
4 3349 3154 3381 3382 
4 3153 3310 3383 3152 
4 3310 3311 3384 3383 
4 3311 3312 3385 3384 
4 3312 3313 3386 3385 
4 3313 3314 3387 3386 
4 3314 3315 3388 3387 
4 3315 3316 3389 3388 
4 3316 3317 3390 3389 
4 3317 3318 3391 3390 
4 3318 3319 3392 3391 
4 3319 3320 3393 3392 
4 3320 3321 3394 3393 
4 3321 3322 3395 3394 
4 3322 3323 3396 3395 
4 3323 3324 3397 3396 
4 3324 3325 3398 3397 
4 3325 3326 3399 3398 
4 3326 3327 3400 3399 
4 3327 6683 3401 3400 
4 6684 3329 3402 3401 
4 3329 3330 3403 3402 
4 3330 3331 3404 3403 
4 3331 3332 3405 3404 
4 3332 3333 3406 3405 
4 3333 3334 3407 3406 
4 3335 3336 3409 3408 
4 3336 3337 3410 3409 
4 3337 3338 3411 3410 
4 3338 3339 3412 3411 
4 3339 3340 3413 3412 
4 3340 3341 3414 3413 
4 3341 3342 3415 3414 
4 3342 3343 3416 3415 
4 3343 3344 3417 3416 
4 3344 3345 3418 3417 
4 3346 3347 3420 3419 
4 3347 3348 3421 3420 
4 3348 3423 3422 3421 
4 3334 3335 3408 3424 
4 3407 3334 3424 3425 
4 3345 3346 3419 3426 
4 3418 3345 3426 3427 
4 3422 3023 3428 3421 
4 3023 3024 3429 3428 
4 3024 3025 3430 3429 
4 3025 3026 3431 3430 
4 3026 3380 3432 3431 
4 3380 3434 3433 3432 
4 3380 3379 3435 3434 
4 3379 3027 3436 3435 
4 3027 3028 3437 3436 
4 3028 3029 3438 3437 
4 3029 3030 3439 3438 
4 3030 3349 3440 3439 
4 3349 3382 3441 3440 
4 3382 3443 3442 3441 
4 3382 3381 3444 3443 
4 3381 3350 3445 3444 
4 3350 3351 3378 3445 
4 3300 3301 3446 3376 
4 3301 3302 3447 3446 
4 3302 3303 3448 3447 
4 3303 3304 3449 3448 
4 3304 3305 3450 3449 
4 3305 3306 3451 3450 
4 3306 3307 3452 3451 
4 3307 3308 3453 3452 
4 3308 3309 3454 3453 
4 3309 3181 3455 3454 
4 3181 3182 3456 3455 
4 3182 3183 3457 3456 
4 3183 3184 3458 3457 
4 3184 3185 3459 3458 
4 3185 3186 3460 3459 
4 3186 3187 3461 3460 
4 3187 3188 3462 3461 
4 3188 3189 3463 3462 
4 3189 3190 3464 3463 
4 3191 3192 3464 3190 
4 3192 3193 3465 3464 
4 3193 3194 3466 3465 
4 3194 3195 3467 3466 
4 3195 3196 3468 3467 
4 3196 3197 3469 3468 
4 3197 3198 3470 3469 
4 3198 3199 3471 3470 
4 3199 3200 3472 3471 
4 3200 3201 3473 3472 
4 3201 3202 3474 3473 
4 3202 3203 3475 3474 
4 3203 3204 3476 3475 
4 3204 3205 3477 3476 
4 3205 3206 3478 3477 
4 3206 3207 3479 3478 
4 3207 3208 3480 3479 
4 3208 3209 3481 3480 
4 3209 3210 3482 3481 
4 3210 3211 3483 3482 
4 3211 3212 3484 3483 
4 3212 3213 3485 3484 
4 3213 3214 3486 3485 
4 3214 3215 3487 3486 
4 3215 3216 3488 3487 
4 3216 3217 3489 3488 
4 3217 3218 3490 3489 
4 3218 3219 3491 3490 
4 3219 3220 3492 3491 
4 3220 3221 3493 3492 
4 3221 3222 3494 3493 
4 3222 3223 3495 3494 
4 3223 3224 3496 3495 
4 3224 3225 3497 3496 
4 3225 3226 3498 3497 
4 3226 3227 3499 3498 
4 3227 3228 3500 3499 
4 3228 3229 3501 3500 
4 3229 3230 3502 3501 
4 3230 3231 3503 3502 
4 3231 3232 3504 3503 
4 3232 3233 3505 3504 
4 3233 3234 3506 3505 
4 3234 3235 3507 3506 
4 3235 3236 3508 3507 
4 3236 3237 3509 3508 
4 3237 3238 3510 3509 
4 3238 3239 3511 3510 
4 3239 3240 3512 3511 
4 3240 3241 3513 3512 
4 3241 3242 3514 3513 
4 3242 3243 3515 3514 
4 3243 3244 3516 3515 
4 3244 3245 3517 3516 
4 3245 3246 3518 3517 
4 3246 3247 3519 3518 
4 3247 3248 3520 3519 
4 3248 3249 3521 3520 
4 3249 3250 3522 3521 
4 3250 3251 3523 3522 
4 3251 3252 3524 3523 
4 3252 3253 3525 3524 
4 3253 3254 3526 3525 
4 3254 3255 3527 3526 
4 3255 3256 3528 3527 
4 3256 3257 3529 3528 
4 3257 3258 3530 3529 
4 3258 3259 3531 3530 
4 3259 3260 3532 3531 
4 3260 3261 3533 3532 
4 3261 3262 3534 3533 
4 3262 3263 3535 3534 
4 3263 3264 3536 3535 
4 3264 3265 3537 3536 
4 3265 3266 3538 3537 
4 3266 3267 3539 3538 
4 3267 3268 3540 3539 
4 3268 3269 3541 3540 
4 3269 3270 3542 3541 
4 3270 3271 3543 3542 
4 3271 3272 3544 3543 
4 3272 3273 3545 3544 
4 3273 3274 3546 3545 
4 3274 3275 3547 3546 
4 3275 3276 3548 3547 
4 3276 3277 3549 3548 
4 3277 3278 3550 3549 
4 3278 3279 3551 3550 
4 3279 3280 3552 3551 
4 3280 3281 3553 3552 
4 3281 3282 3554 3553 
4 3282 3283 3555 3554 
4 3283 3284 3556 3555 
4 3284 3285 3557 3556 
4 3285 3286 3558 3557 
4 3286 3287 3559 3558 
4 3287 3288 3560 3559 
4 3288 3289 3561 3560 
4 3289 3290 3562 3561 
4 3290 3291 3563 3562 
4 3291 3292 3564 3563 
4 3292 3293 3565 3564 
4 3293 3294 3566 3565 
4 3294 3295 3567 3566 
4 3295 3296 3568 3567 
4 3296 3297 3569 3568 
4 3297 3298 3570 3569 
4 3298 3299 3032 3570 
4 3021 3022 3423 3348 
4 3067 3068 3571 3066 
4 3068 3149 3572 3571 
4 3149 3148 3573 3572 
4 3069 3070 3575 3574 
4 3070 3071 3576 3575 
4 3071 3072 3577 3576 
4 3072 3073 3578 3577 
4 3073 3074 3579 3578 
4 3074 3075 3580 3579 
4 3075 3582 3581 3580 
4 3075 3076 3583 3582 
4 3076 3077 3584 3583 
4 3077 3078 3585 3584 
4 3078 3079 3586 3585 
4 3079 3080 3587 3586 
4 3080 3081 3588 3587 
4 3081 3082 3589 3588 
4 3082 3083 3590 3589 
4 3083 6682 3591 3590 
4 6682 6681 3592 3591 
4 3086 3087 3595 3594 
4 3087 3088 3596 3595 
4 3088 3089 3597 3596 
4 3089 3090 3598 3597 
4 3090 3091 3599 3598 
4 3091 3092 3600 3599 
4 3092 3093 3601 3600 
4 3093 3094 3602 3601 
4 3094 3095 3603 3602 
4 3095 3096 3604 3603 
4 3096 3097 3605 3604 
4 3098 3099 3605 3097 
4 3099 3100 3606 3605 
4 3100 3101 3607 3606 
4 3101 3102 3608 3607 
4 3102 3103 3609 3608 
4 3103 3104 3610 3609 
4 3104 3105 3611 3610 
4 3595 3596 3593 3594 
4 3596 3597 3911 3593 
4 3597 3598 3612 3911 
4 3598 3599 3613 3612 
4 3600 3601 3615 3614 
4 3601 3602 3616 3615 
4 3602 3603 3617 3616 
4 3603 3604 3618 3617 
4 3604 3605 3619 3618 
4 3605 3606 3620 3619 
4 3606 3607 3621 3620 
4 3607 3608 3622 3621 
4 3610 3611 3625 3624 
4 3611 3627 3626 3625 
4 3626 3107 3628 3625 
4 3107 3630 3629 3628 
4 3107 3108 3631 3630 
4 3108 3109 3632 3631 
4 3109 3110 3633 3632 
4 3110 3111 3634 3633 
4 3111 3112 3635 3634 
4 3112 3113 3636 3635 
4 3113 3114 3637 3636 
4 3114 3115 3638 3637 
4 3115 3116 3639 3638 
4 3116 3117 3640 3639 
4 3117 3118 3641 3640 
4 3118 3119 3642 3641 
4 3119 3120 3643 3642 
4 3120 3645 3644 3643 
4 3120 3121 3646 3645 
4 3121 3122 3647 3646 
4 3122 3123 3648 3647 
4 3123 3124 3649 3648 
4 3124 3125 3650 3649 
4 3125 3126 3651 3650 
4 3126 3127 3652 3651 
4 3127 3128 3653 3652 
4 3128 3129 3654 3653 
4 3129 3130 3655 3654 
4 3130 3657 3656 3655 
4 3130 3131 3658 3657 
4 3131 3132 3659 3658 
4 3132 3133 3660 3659 
4 3133 3134 3661 3660 
4 3135 3136 3661 3134 
4 3136 3137 3662 3661 
4 3137 3138 3663 3662 
4 3138 3139 3664 3663 
4 3139 3666 3665 3664 
4 3139 3140 3667 3666 
4 3140 3151 3150 3667 
4 3358 3359 3668 3357 
4 3359 3360 3669 3668 
4 3360 3361 3670 3669 
4 3361 3362 3671 3670 
4 3362 3363 3672 3671 
4 3363 3364 3673 3672 
4 3364 3365 3674 3673 
4 3365 3366 3675 3674 
4 3366 3367 3676 3675 
4 3105 3106 3627 3611 
4 3401 3402 3677 3400 
4 3402 3403 3678 3677 
4 3403 3404 3679 3678 
4 3404 3405 3680 3679 
4 3405 3406 3681 3680 
4 3406 3407 3682 3681 
4 3407 3425 3683 3682 
4 3425 3685 3684 3683 
4 3425 3424 3686 3685 
4 3424 3408 3687 3686 
4 3408 3409 3688 3687 
4 3409 3410 3689 3688 
4 3410 3411 3690 3689 
4 3411 3412 3691 3690 
4 3412 3413 3692 3691 
4 3413 3414 3693 3692 
4 3414 3415 3694 3693 
4 3415 3416 3695 3694 
4 3416 3417 3696 3695 
4 3417 3418 3697 3696 
4 3418 3427 3698 3697 
4 3427 3700 3699 3698 
4 3427 3426 3701 3700 
4 3426 3419 3702 3701 
4 3419 3420 3703 3702 
4 3420 3421 3704 3703 
4 3421 3428 3705 3704 
4 3428 3429 3706 3705 
4 3429 3430 3707 3706 
4 3430 3431 3708 3707 
4 3431 3432 3709 3708 
4 3432 3433 3710 3709 
4 3433 3712 3711 3710 
4 3433 3434 3713 3712 
4 3434 3435 3714 3713 
4 3435 3436 3715 3714 
4 3436 3437 3716 3715 
4 3437 3438 3717 3716 
4 3438 3439 3718 3717 
4 3439 3440 4191 3718 
4 3440 3441 3719 4191 
4 3441 3442 3720 3719 
4 3442 3722 3721 3720 
4 3442 3443 3723 3722 
4 3443 3444 3724 3723 
4 3444 3445 4198 3724 
4 3445 3378 4209 4198 
4 3378 3377 3725 4209 
4 3377 3352 3726 3725 
4 3352 3353 3727 3726 
4 3353 3354 3728 3727 
4 3354 3730 3729 3728 
4 3354 3355 3731 3730 
4 3355 3356 3732 3731 
4 3356 3357 3668 3732 
4 3032 3033 3733 3570 
4 3033 3034 3734 3733 
4 3034 3035 3735 3734 
4 3035 3036 3736 3735 
4 3036 3037 3737 3736 
4 3037 3038 3738 3737 
4 3038 3039 3739 3738 
4 3039 3040 3740 3739 
4 3040 3041 3741 3740 
4 3041 3042 3742 3741 
4 3042 3043 3743 3742 
4 3043 3044 3744 3743 
4 3045 3046 3746 3745 
4 3046 3047 3747 3746 
4 3047 3048 3748 3747 
4 3048 3049 3749 3748 
4 3049 3050 3750 3749 
4 3050 3051 3751 3750 
4 3051 3052 3752 3751 
4 3052 3053 3753 3752 
4 3053 3054 3754 3753 
4 3054 3055 3755 3754 
4 3055 3056 3756 3755 
4 3056 3057 3757 3756 
4 3057 3058 3758 3757 
4 3058 3059 3759 3758 
4 3059 3060 3760 3759 
4 3060 3061 3761 3760 
4 3061 3062 3762 3761 
4 3062 3063 3763 3762 
4 3063 3064 3764 3763 
4 3064 3065 3765 3764 
4 3065 3066 3571 3765 
4 3369 3370 3767 3766 
4 3370 3371 3768 3767 
4 3371 3372 3769 3768 
4 3372 3373 3770 3769 
4 3373 3374 3771 3770 
4 3374 3773 3772 3771 
4 3374 3375 3774 3773 
4 3375 3376 3446 3774 
4 3446 3447 3775 3774 
4 3447 3448 3776 3775 
4 3448 3449 3777 3776 
4 3449 3450 3778 3777 
4 3450 3451 3779 3778 
4 3451 3452 3780 3779 
4 3452 3453 3781 3780 
4 3453 3454 3782 3781 
4 3454 3455 3783 3782 
4 3455 3456 3784 3783 
4 3456 3457 3785 3784 
4 3457 3458 3786 3785 
4 3458 3459 3787 3786 
4 3459 3460 3788 3787 
4 3460 3461 3789 3788 
4 3461 3462 3790 3789 
4 3462 3463 3791 3790 
4 3463 3464 3792 3791 
4 3464 3465 3793 3792 
4 3465 3466 3794 3793 
4 3466 3467 3795 3794 
4 3467 3468 3796 3795 
4 3468 3469 3797 3796 
4 3469 3470 3798 3797 
4 3470 3471 3799 3798 
4 3471 3472 3800 3799 
4 3472 3473 3801 3800 
4 3473 3474 3802 3801 
4 3474 3475 3803 3802 
4 3475 3476 3804 3803 
4 3476 3477 3805 3804 
4 3477 3478 3806 3805 
4 3478 3479 3807 3806 
4 3479 3480 3808 3807 
4 3480 3481 3809 3808 
4 3481 3482 3810 3809 
4 3482 3483 3811 3810 
4 3483 3484 3812 3811 
4 3484 3485 3813 3812 
4 3485 3486 3814 3813 
4 3486 3487 3815 3814 
4 3487 3488 3816 3815 
4 3488 3489 3817 3816 
4 3489 3490 3818 3817 
4 3490 3491 3819 3818 
4 3491 3492 3820 3819 
4 3492 3493 3821 3820 
4 3493 3494 3822 3821 
4 3494 3495 3823 3822 
4 3495 3496 3824 3823 
4 3496 3497 3825 3824 
4 3497 3498 3826 3825 
4 3498 3499 3827 3826 
4 3499 3500 3828 3827 
4 3500 3501 3829 3828 
4 3501 3502 3830 3829 
4 3502 3503 3831 3830 
4 3503 3504 3832 3831 
4 3504 3505 3833 3832 
4 3505 3506 3834 3833 
4 3506 3507 3835 3834 
4 3507 3508 3836 3835 
4 3508 3509 3837 3836 
4 3509 3510 3838 3837 
4 3510 3511 3839 3838 
4 3511 3512 3840 3839 
4 3512 3513 3841 3840 
4 3513 3514 3842 3841 
4 3514 3515 3843 3842 
4 3515 3516 3844 3843 
4 3516 3517 3845 3844 
4 3517 3518 3846 3845 
4 3518 3519 3847 3846 
4 3519 3520 3848 3847 
4 3520 3521 3849 3848 
4 3521 3522 3850 3849 
4 3522 3523 3851 3850 
4 3523 3524 3852 3851 
4 3524 3525 3853 3852 
4 3525 3526 3854 3853 
4 3526 3527 3855 3854 
4 3527 3528 3856 3855 
4 3528 3529 3857 3856 
4 3530 3531 3859 3858 
4 3531 3532 3860 3859 
4 3532 3533 3861 3860 
4 3533 3534 3862 3861 
4 3534 3535 3863 3862 
4 3535 3536 3864 3863 
4 3536 3537 3865 3864 
4 3537 3538 3866 3865 
4 3538 3539 3867 3866 
4 3539 3540 3868 3867 
4 3540 3541 3869 3868 
4 3541 3542 3870 3869 
4 3542 3543 3871 3870 
4 3543 3544 3872 3871 
4 3544 3545 3873 3872 
4 3545 3546 3874 3873 
4 3546 3547 3875 3874 
4 3547 3548 3876 3875 
4 3548 3549 3877 3876 
4 3549 3550 3878 3877 
4 3550 3551 3879 3878 
4 3551 3552 3880 3879 
4 3552 3553 3881 3880 
4 3553 3554 3882 3881 
4 3554 3555 3883 3882 
4 3555 3556 3884 3883 
4 3556 3557 3885 3884 
4 3557 3558 3886 3885 
4 3558 3559 3887 3886 
4 3559 3560 3888 3887 
4 3560 3561 3889 3888 
4 3561 3562 3890 3889 
4 3562 3563 3891 3890 
4 3563 3564 3892 3891 
4 3564 3565 3893 3892 
4 3565 3566 3894 3893 
4 3566 3567 3895 3894 
4 3567 3568 3896 3895 
4 3568 3569 3897 3896 
4 3569 3570 3733 3897 
4 3529 3530 3858 3898 
4 3857 3529 3898 3899 
4 3733 3734 3900 3897 
4 3734 3735 3901 3900 
4 3735 3736 3902 3901 
4 3736 3737 3903 3902 
4 3737 3738 3739 3903 
4 3585 3586 3904 3584 
4 3586 3587 3905 3904 
4 3587 3588 3906 3905 
4 3588 3589 3907 3906 
4 3589 3590 3908 3907 
4 3590 3591 3909 3908 
4 3591 3592 3910 3909 
4 3592 3593 3911 3910 
4 3599 3600 3614 3912 
4 3613 3599 3912 3913 
4 3400 3677 3914 3399 
4 3677 3678 3915 3914 
4 3678 3679 3916 3915 
4 3679 3680 3917 3916 
4 3680 3681 3918 3917 
4 3681 3682 3919 3918 
4 3682 3683 3920 3919 
4 3683 3684 3921 3920 
4 3684 3923 3922 3921 
4 3684 3685 3924 3923 
4 3685 3686 3925 3924 
4 3686 3687 3926 3925 
4 3687 3688 3927 3926 
4 3688 3689 3928 3927 
4 3690 3691 3928 3689 
4 3691 3692 3929 3928 
4 3692 3693 3930 3929 
4 3693 3694 3931 3930 
4 3694 3695 3932 3931 
4 3695 3696 3933 3932 
4 3696 3697 3934 3933 
4 3697 3698 3935 3934 
4 3698 3699 3936 3935 
4 3699 3938 3937 3936 
4 3699 3700 3939 3938 
4 3700 3701 3940 3939 
4 3701 3702 3941 3940 
4 3702 3703 3942 3941 
4 3703 3704 6685 3942 
4 3706 3707 3944 6686 
4 3707 3708 3945 3944 
4 3708 3709 3946 3945 
4 3709 3710 3947 3946 
4 3710 3711 3948 3947 
4 3711 3950 3949 3948 
4 3711 3712 3951 3950 
4 3712 3713 3952 3951 
4 3713 3714 3953 3952 
4 3714 3715 3954 3953 
4 3715 3716 3955 3954 
4 3739 3740 3956 3903 
4 3740 3741 3742 3956 
4 3742 3743 4265 3956 
4 3743 3744 3957 4265 
4 3746 3747 3960 3959 
4 3747 3748 3961 3960 
4 3748 3749 3962 3961 
4 3749 3750 3963 3962 
4 3750 3751 3964 3963 
4 3751 3752 3965 3964 
4 3752 3753 3966 3965 
4 3753 3754 3967 3966 
4 3754 3755 3968 3967 
4 3755 3756 3969 3968 
4 3756 3757 3970 3969 
4 3757 3758 3971 3970 
4 3758 3759 3972 3971 
4 3759 3760 3973 3972 
4 3760 3761 3974 3973 
4 3761 3762 3975 3974 
4 3762 3763 3976 3975 
4 3763 3764 3977 3976 
4 3764 3765 3978 3977 
4 3765 3571 3572 3978 
4 3668 3669 3979 3732 
4 3669 3670 3980 3979 
4 3670 3671 3981 3980 
4 3671 3672 3982 3981 
4 3673 3674 3982 3672 
4 3674 3675 3983 3982 
4 3675 3676 3984 3983 
4 3367 3368 3985 3676 
4 3368 3369 3766 3985 
4 3985 3766 3984 3676 
4 3766 3767 3986 3984 
4 3767 3768 3987 3986 
4 3768 3769 3988 3987 
4 3769 3770 3989 3988 
4 3770 3771 3990 3989 
4 3771 3772 3991 3990 
4 3772 4024 3992 3991 
4 3772 3773 3993 4024 
4 3773 3774 3775 3993 
4 3634 3635 3994 3633 
4 3635 3636 3995 3994 
4 3636 3637 3996 3995 
4 3637 3638 3997 3996 
4 3638 3639 3998 3997 
4 3639 3640 3999 3998 
4 3640 3641 4000 3999 
4 3641 3642 4001 4000 
4 3642 3643 4002 4001 
4 3643 3644 4003 4002 
4 3644 4005 4004 4003 
4 3644 3645 4006 4005 
4 3645 3646 4007 4006 
4 3646 3647 4008 4007 
4 3647 3648 4009 4008 
4 3648 3649 4010 4009 
4 3649 3650 4011 4010 
4 3650 3651 4012 4011 
4 3651 3652 4013 4012 
4 3652 3653 4014 4013 
4 3653 3654 4015 4014 
4 3654 3655 4016 4015 
4 3655 3656 4017 4016 
4 3656 4019 4018 4017 
4 3656 3657 4020 4019 
4 3657 3658 4021 4020 
4 3658 3659 4022 4021 
4 3659 3660 4023 4022 
4 3660 3661 3662 4023 
4 3775 3776 4024 3993 
4 3776 3777 4025 4024 
4 3777 3778 4026 4025 
4 3778 3779 4027 4026 
4 3779 3780 4028 4027 
4 3781 3782 4028 3780 
4 3782 3783 4029 4028 
4 3783 3784 4030 4029 
4 3784 3785 4031 4030 
4 3785 3786 4032 4031 
4 3786 3787 4033 4032 
4 3788 3789 4033 3787 
4 3789 3790 4034 4033 
4 3790 3791 4035 4034 
4 3791 3792 4036 4035 
4 3792 3793 4037 4036 
4 3793 3794 4038 4037 
4 3794 3795 4039 4038 
4 3795 3796 4040 4039 
4 3796 3797 4041 4040 
4 3797 3798 4042 4041 
4 3798 3799 4043 4042 
4 3799 3800 4044 4043 
4 3800 3801 4045 4044 
4 3801 3802 4046 4045 
4 3802 3803 4047 4046 
4 3803 3804 4048 4047 
4 3804 3805 4049 4048 
4 3805 3806 4050 4049 
4 3806 3807 4051 4050 
4 3807 3808 4052 4051 
4 3808 3809 4053 4052 
4 3809 3810 4054 4053 
4 3810 3811 4055 4054 
4 3811 3812 4056 4055 
4 3812 3813 4057 4056 
4 3813 3814 4058 4057 
4 3814 3815 4059 4058 
4 3815 3816 4060 4059 
4 3816 3817 4061 4060 
4 3817 3818 4062 4061 
4 3818 3819 4063 4062 
4 3819 3820 4064 4063 
4 3820 3821 4065 4064 
4 3821 3822 4066 4065 
4 3822 3823 4067 4066 
4 3823 3824 4068 4067 
4 3824 3825 4069 4068 
4 3825 3826 4070 4069 
4 3826 3827 4071 4070 
4 3827 3828 4072 4071 
4 3828 3829 4073 4072 
4 3829 3830 4074 4073 
4 3830 3831 4075 4074 
4 3831 3832 4076 4075 
4 3832 3833 4077 4076 
4 3833 3834 4078 4077 
4 3834 3835 4079 4078 
4 3835 3836 4080 4079 
4 3836 3837 4081 4080 
4 3837 3838 4082 4081 
4 3838 3839 4083 4082 
4 3839 3840 4084 4083 
4 3840 3841 4085 4084 
4 3841 3842 4086 4085 
4 3842 3843 4087 4086 
4 3843 3844 4088 4087 
4 3844 3845 4089 4088 
4 3845 3846 4090 4089 
4 3846 3847 4091 4090 
4 3847 3848 4092 4091 
4 3848 3849 4093 4092 
4 3849 3850 4094 4093 
4 3850 3851 4095 4094 
4 3851 3852 4096 4095 
4 3852 3853 4097 4096 
4 3853 3854 4098 4097 
4 3854 3855 4099 4098 
4 3855 3856 4100 4099 
4 3856 3857 4101 4100 
4 3857 3899 4456 4101 
4 3899 4102 4455 4456 
4 3899 3898 4103 4102 
4 3898 3858 4104 4103 
4 3858 3859 4105 4104 
4 3859 3860 4106 4105 
4 3860 3861 4107 4106 
4 3861 3862 4108 4107 
4 3862 3863 4109 4108 
4 3863 3864 4110 4109 
4 3864 3865 4111 4110 
4 3865 3866 4112 4111 
4 3866 3867 4113 4112 
4 3867 3868 4114 4113 
4 3868 3869 4115 4114 
4 3869 3870 4116 4115 
4 3870 3871 4117 4116 
4 3871 3872 4118 4117 
4 3872 3873 4119 4118 
4 3873 3874 4120 4119 
4 3874 3875 4121 4120 
4 3875 3876 4122 4121 
4 3876 3877 4123 4122 
4 3877 3878 4124 4123 
4 3878 3879 4125 4124 
4 3879 3880 4126 4125 
4 3880 3881 4127 4126 
4 3881 3882 4128 4127 
4 3882 3883 4129 4128 
4 3883 3884 4130 4129 
4 3884 3885 4131 4130 
4 3885 3886 4132 4131 
4 3886 3887 4133 4132 
4 3887 3888 4134 4133 
4 3888 3889 4135 4134 
4 3889 3890 4136 4135 
4 3890 3891 4137 4136 
4 3891 3892 4138 4137 
4 3892 3893 4139 4138 
4 3893 3894 4140 4139 
4 3894 3895 4141 4140 
4 3895 3896 4142 4141 
4 3896 3897 3900 4142 
4 3399 3914 4143 3398 
4 3914 3915 4144 4143 
4 3915 3916 4145 4144 
4 3916 3917 4146 4145 
4 3917 3918 4147 4146 
4 3918 3919 4148 4147 
4 3919 3920 4149 4148 
4 3920 3921 4150 4149 
4 3921 3922 4151 4150 
4 3922 4153 4152 4151 
4 3923 3924 4153 3922 
4 3924 3925 4154 4153 
4 3925 3926 4155 4154 
4 3926 3927 4156 4155 
4 3927 3928 4157 4156 
4 3928 3929 4158 4157 
4 3929 3930 4159 4158 
4 3930 3931 4160 4159 
4 3931 3932 4161 4160 
4 3932 3933 4162 4161 
4 3933 3934 4163 4162 
4 3934 3935 4164 4163 
4 3935 3936 4165 4164 
4 3936 3937 4166 4165 
4 3937 4168 4167 4166 
4 3937 3938 4169 4168 
4 3938 3939 4170 4169 
4 3939 3940 4171 4170 
4 3940 3941 4172 4171 
4 3941 3942 4173 4172 
4 3942 6685 4174 4173 
4 6686 3944 4175 4174 
4 3944 3945 4176 4175 
4 3945 3946 4177 4176 
4 3946 3947 4178 4177 
4 3947 3948 4179 4178 
4 3948 3949 4180 4179 
4 3949 4182 4181 4180 
4 3949 3950 4183 4182 
4 3950 3951 4184 4183 
4 3951 3952 4185 4184 
4 3952 3953 4186 4185 
4 3953 3954 4187 4186 
4 3954 3955 4188 4187 
4 3955 4190 4189 4188 
4 3955 3716 3717 4190 
4 3717 3718 4191 4190 
4 4191 3719 4189 4190 
4 3719 3720 4192 4189 
4 3720 3721 4193 4192 
4 3721 4195 4194 4193 
4 3721 3722 4196 4195 
4 3722 3723 4197 4196 
4 3723 3724 4198 4197 
4 4189 4192 4199 4188 
4 4192 4193 4200 4199 
4 4193 4194 4201 4200 
4 4194 4203 4202 4201 
4 4194 4195 4204 4203 
4 4195 4196 4205 4204 
4 4196 4197 4206 4205 
4 4197 4198 4207 4206 
4 4198 4209 4208 4207 
4 3148 3069 3574 4210 
4 3573 3148 4210 4211 
4 3152 3383 3667 3150 
4 3383 3384 4212 3667 
4 3384 3385 4213 4212 
4 3385 3386 4214 4213 
4 3386 3387 4215 4214 
4 3387 3388 4693 4215 
4 3388 3389 4692 4693 
4 3389 3390 4216 4692 
4 3390 3391 4217 4216 
4 3391 3392 4218 4217 
4 3392 3393 4219 4218 
4 3393 3394 4220 4219 
4 3394 3395 4221 4220 
4 3395 3396 4222 4221 
4 3396 3397 4223 4222 
4 3397 3398 4143 4223 
4 4209 3725 4224 4208 
4 3725 3726 4225 4224 
4 3726 3727 4226 4225 
4 3727 3728 4227 4226 
4 3728 3729 4228 4227 
4 3729 4230 4229 4228 
4 3729 3730 4231 4230 
4 3730 3731 4232 4231 
4 3731 3732 3979 4232 
4 3625 3628 4233 3624 
4 3628 3629 4234 4233 
4 3629 4236 4235 4234 
4 3629 3630 4237 4236 
4 3630 3631 4238 4237 
4 3631 3632 4239 4238 
4 3632 3633 3994 4239 
4 3573 4211 4240 3572 
4 4211 4242 4241 4240 
4 4211 4210 4243 4242 
4 4210 3574 4244 4243 
4 3574 3575 4245 4244 
4 3575 3576 4246 4245 
4 3576 3577 4247 4246 
4 3577 3578 4248 4247 
4 3578 3579 4249 4248 
4 3579 3580 4250 4249 
4 3580 3581 4251 4250 
4 3581 4253 4252 4251 
4 3581 3582 4254 4253 
4 3582 3583 4255 4254 
4 3583 3584 3904 4255 
4 3662 3663 4256 4023 
4 3663 3664 4257 4256 
4 3664 3665 4258 4257 
4 3665 4260 4259 4258 
4 3665 3666 4261 4260 
4 3666 3667 4212 4261 
4 3900 3901 4262 4142 
4 3901 3902 4263 4262 
4 3902 3903 4264 4263 
4 3903 3956 4265 4264 
4 3745 3746 3959 4266 
4 3958 3745 4266 4267 
4 3984 3986 4268 3983 
4 3986 3987 4269 4268 
4 3987 3988 4270 4269 
4 3988 3989 4271 4270 
4 3989 3990 4272 4271 
4 3990 3991 4273 4272 
4 3991 3992 4274 4273 
4 3992 4276 4275 4274 
4 3992 4024 4025 4276 
4 3994 3995 4277 4239 
4 3995 3996 4278 4277 
4 3996 3997 4279 4278 
4 3997 3998 4280 4279 
4 3998 3999 4281 4280 
4 3999 4000 4282 4281 
4 4000 4001 4283 4282 
4 4001 4002 4284 4283 
4 4002 4003 4285 4284 
4 4003 4004 4286 4285 
4 4004 4288 4287 4286 
4 4004 4005 4289 4288 
4 4005 4006 4290 4289 
4 4006 4007 4291 4290 
4 4007 4008 4292 4291 
4 4008 4009 4293 4292 
4 4009 4010 4294 4293 
4 4010 4011 4295 4294 
4 4011 4012 4296 4295 
4 4012 4013 4014 4296 
4 3911 3612 4297 3910 
4 3612 3613 4298 4297 
4 3613 3913 4299 4298 
4 3913 4301 4300 4299 
4 3913 3912 4302 4301 
4 3912 3614 4303 4302 
4 3614 3615 4304 4303 
4 3615 3616 4305 4304 
4 3616 3617 4306 4305 
4 3618 3619 4306 3617 
4 3619 3620 4308 4306 
4 4025 4026 4309 4276 
4 4026 4027 4310 4309 
4 4027 4028 4311 4310 
4 4028 4029 4312 4311 
4 4029 4030 4313 4312 
4 4033 4034 4315 6688 
4 4034 4035 4316 4315 
4 4035 4036 4317 4316 
4 4036 4037 4318 4317 
4 4037 4038 4319 4318 
4 4038 4039 4320 4319 
4 4039 4040 4321 4320 
4 4040 4041 4322 4321 
4 4041 4042 4323 4322 
4 4042 4043 4324 4323 
4 4043 4044 4325 4324 
4 4044 4045 4326 4325 
4 4045 4046 4327 4326 
4 4046 4047 4328 4327 
4 4047 4048 4329 4328 
4 4048 4049 4330 4329 
4 4049 4050 4331 4330 
4 4050 4051 4332 4331 
4 4051 4052 4333 4332 
4 4052 4053 4334 4333 
4 4053 4054 4335 4334 
4 4054 4055 4336 4335 
4 4055 4056 4337 4336 
4 4056 4057 4338 4337 
4 4057 4058 4339 4338 
4 4058 4059 4340 4339 
4 4059 4060 4341 4340 
4 4060 4061 4342 4341 
4 4061 4062 4343 4342 
4 4062 4063 4344 4343 
4 4063 4064 4345 4344 
4 4064 4065 4346 4345 
4 4065 4066 4347 4346 
4 4066 4067 4348 4347 
4 4067 4068 4349 4348 
4 4068 4069 4350 4349 
4 4069 4070 4351 4350 
4 4070 4071 4352 4351 
4 4071 4072 4353 4352 
4 4072 4073 4354 4353 
4 4073 4074 4355 4354 
4 4074 4075 4356 4355 
4 4075 4076 4357 4356 
4 4076 4077 4358 4357 
4 4077 4078 4359 4358 
4 4078 4079 4360 4359 
4 4079 4080 4361 4360 
4 4080 4081 4362 4361 
4 4081 4082 4363 4362 
4 4082 4083 4364 4363 
4 4083 4084 4365 4364 
4 4084 4085 4366 4365 
4 4085 4086 4367 4366 
4 4086 4087 4368 4367 
4 4087 4088 4369 4368 
4 4088 4089 4370 4369 
4 4089 4090 4371 4370 
4 4090 4091 4372 4371 
4 4091 4092 4373 4372 
4 4092 4093 4374 4373 
4 4093 4094 4375 4374 
4 4094 4095 4376 4375 
4 4095 4096 4377 4376 
4 4096 4097 4378 4377 
4 4097 4098 4379 4378 
4 4098 4099 4380 4379 
4 4099 4100 4381 4380 
4 4212 4213 4214 4261 
4 4276 4309 4382 4275 
4 4309 4310 4383 4382 
4 4310 4311 4384 4383 
4 4311 4312 4385 4384 
4 4312 4313 4386 4385 
4 4313 6687 4387 4386 
4 6688 4315 4388 4387 
4 4315 4316 4389 4388 
4 4316 4317 4390 4389 
4 4317 4318 4391 4390 
4 4318 4319 4392 4391 
4 4319 4320 4393 4392 
4 4320 4321 4394 4393 
4 4321 4322 4395 4394 
4 4322 4323 4396 4395 
4 4323 4324 4397 4396 
4 4324 4325 4398 4397 
4 4325 4326 4399 4398 
4 4326 4327 4400 4399 
4 4327 4328 4401 4400 
4 4328 4329 4402 4401 
4 4329 4330 4403 4402 
4 4330 4331 4404 4403 
4 4331 4332 4405 4404 
4 4332 4333 4406 4405 
4 4333 4334 4407 4406 
4 4334 4335 4408 4407 
4 4335 4336 4409 4408 
4 4336 4337 4410 4409 
4 4337 4338 4411 4410 
4 4338 4339 4412 4411 
4 4339 4340 4413 4412 
4 4340 4341 4414 4413 
4 4341 4342 4415 4414 
4 4342 4343 4416 4415 
4 4343 4344 4417 4416 
4 4344 4345 4418 4417 
4 4345 4346 4419 4418 
4 4346 4347 4420 4419 
4 4347 4348 4421 4420 
4 4348 4349 4422 4421 
4 4349 4350 4423 4422 
4 4350 4351 4424 4423 
4 4351 4352 4425 4424 
4 4352 4353 4426 4425 
4 4353 4354 4427 4426 
4 4354 4355 4428 4427 
4 4355 4356 4429 4428 
4 4356 4357 4430 4429 
4 4357 4358 4431 4430 
4 4358 4359 4432 4431 
4 4359 4360 4433 4432 
4 4360 4361 4434 4433 
4 4361 4362 4435 4434 
4 4362 4363 4436 4435 
4 4364 4365 4438 4437 
4 4365 4366 4439 4438 
4 4366 4367 4440 4439 
4 4367 4368 4441 4440 
4 4368 4369 4442 4441 
4 4369 4370 4443 4442 
4 4370 4371 4444 4443 
4 4371 4372 4445 4444 
4 4372 4373 4446 4445 
4 4373 4374 4447 4446 
4 4374 4375 4448 4447 
4 4375 4376 4449 4448 
4 4376 4377 4450 4449 
4 4377 4378 4451 4450 
4 4378 4379 4452 4451 
4 4379 4380 4453 4452 
4 4380 4381 4454 4453 
4 4381 4456 4455 4454 
4 4363 4364 4437 4587 
4 4436 4363 4587 4586 
4 3572 4240 4457 3978 
4 4240 4241 4458 4457 
4 4241 4460 4459 4458 
4 4241 4242 4461 4460 
4 4242 4243 4462 4461 
4 4243 4244 4463 4462 
4 4244 4245 4464 4463 
4 4245 4246 4465 4464 
4 4246 4247 4466 4465 
4 4247 4248 4467 4466 
4 4248 4249 4468 4467 
4 4249 4250 4469 4468 
4 4250 4251 4470 4469 
4 4251 4252 4471 4470 
4 4252 4473 4472 4471 
4 4252 4253 4474 4473 
4 4253 4254 4475 4474 
4 4254 4255 4476 4475 
4 4255 3904 4477 4476 
4 3904 3905 4478 4477 
4 3905 3906 4479 4478 
4 3906 3907 4480 4479 
4 3907 3908 4481 4480 
4 3908 3909 4482 4481 
4 3909 3910 4483 4482 
4 3910 4297 4484 4483 
4 4297 4298 4485 4484 
4 4298 4299 4486 4485 
4 4299 4300 4487 4486 
4 4300 4489 4488 4487 
4 4300 4301 4490 4489 
4 4301 4302 4491 4490 
4 4302 4303 4304 4491 
4 4188 4199 4492 4187 
4 4199 4200 4493 4492 
4 4200 4201 4494 4493 
4 4201 4202 4495 4494 
4 4202 4497 4496 4495 
4 4202 4203 4498 4497 
4 4203 4204 4499 4498 
4 4204 4205 4500 4499 
4 4205 4206 4501 4500 
4 4206 4207 4502 4501 
4 4207 4208 4503 4502 
4 4208 4224 4504 4503 
4 4224 4225 4505 4504 
4 4225 4226 4506 4505 
4 4226 4227 5112 4506 
4 4227 4228 4507 5112 
4 4228 4229 4508 4507 
4 4229 4510 4509 4508 
4 4229 4230 4511 4510 
4 4230 4231 4512 4511 
4 4231 4232 4513 4512 
4 4232 3979 3980 4513 
4 4142 4262 4514 4141 
4 4262 4263 4515 4514 
4 4263 4264 4516 4515 
4 3958 4267 4520 4519 
4 4267 4522 4521 4520 
4 4267 4266 4523 4522 
4 4266 3959 4524 4523 
4 3959 3960 5124 4524 
4 3960 3961 4525 5124 
4 3961 3962 4526 4525 
4 3962 3963 4527 4526 
4 3963 3964 4528 4527 
4 3964 3965 4529 4528 
4 3965 3966 4530 4529 
4 3966 3967 4531 4530 
4 3967 3968 4532 4531 
4 3968 3969 4533 4532 
4 3969 3970 4534 4533 
4 3970 3971 4535 4534 
4 3971 3972 4536 4535 
4 3972 3973 4537 4536 
4 3973 3974 4538 4537 
4 3974 3975 4539 4538 
4 3975 3976 4540 4539 
4 3976 3977 4541 4540 
4 3977 3978 4457 4541 
4 4100 4101 4456 4381 
4 4387 4388 4808 4386 
4 4388 4389 4542 4808 
4 4389 4390 4543 4542 
4 4390 4391 4544 4543 
4 4391 4392 4545 4544 
4 4392 4393 4546 4545 
4 4393 4394 4547 4546 
4 4394 4395 4548 4547 
4 4395 4396 4549 4548 
4 4396 4397 4550 4549 
4 4397 4398 4551 4550 
4 4398 4399 4946 4551 
4 4399 4400 4945 4946 
4 4400 4401 4552 4945 
4 4401 4402 4784 4552 
4 4402 4403 4888 4784 
4 4403 4404 4553 4888 
4 4404 4405 4554 4553 
4 4405 4406 4555 4554 
4 4406 4407 4556 4555 
4 4407 4408 4557 4556 
4 4408 4409 4558 4557 
4 4409 4410 4559 4558 
4 4410 4411 4560 4559 
4 4411 4412 4561 4560 
4 4412 4413 4562 4561 
4 4413 4414 4563 4562 
4 4414 4415 4564 4563 
4 4415 4416 4565 4564 
4 4416 4417 4566 4565 
4 4417 4418 4567 4566 
4 4418 4419 4568 4567 
4 4419 4420 4569 4568 
4 4420 4421 4570 4569 
4 4421 4422 4571 4570 
4 4422 4423 4572 4571 
4 4423 4424 4573 4572 
4 4424 4425 4574 4573 
4 4425 4426 4575 4574 
4 4426 4427 4576 4575 
4 4427 4428 4577 4576 
4 4428 4429 4578 4577 
4 4429 4430 4579 4578 
4 4430 4431 4580 4579 
4 4431 4432 4581 4580 
4 4432 4433 4582 4581 
4 4433 4434 4583 4582 
4 4434 4435 4584 4583 
4 4435 4436 4585 4584 
4 4437 4438 4589 4588 
4 4438 4439 4590 4589 
4 4439 4440 4591 4590 
4 4440 4441 4592 4591 
4 4441 4442 4593 4592 
4 4442 4443 4594 4593 
4 4443 4444 4595 4594 
4 4444 4445 4596 4595 
4 4445 4446 4597 4596 
4 4446 4447 4598 4597 
4 4447 4448 4599 4598 
4 4448 4449 4600 4599 
4 4449 4450 4601 4600 
4 4450 4451 4602 4601 
4 4451 4452 4603 4602 
4 4452 4453 4604 4603 
4 4453 4454 4605 4604 
4 4454 4455 4606 4605 
4 4455 4102 4607 4606 
4 4102 4103 4608 4607 
4 4103 4104 4609 4608 
4 4104 4105 4610 4609 
4 4105 4106 4611 4610 
4 4106 4107 4612 4611 
4 4107 4108 4613 4612 
4 4108 4109 4614 4613 
4 4109 4110 4615 4614 
4 4110 4111 4616 4615 
4 4111 4112 4617 4616 
4 4112 4113 4618 4617 
4 4113 4114 4619 4618 
4 4114 4115 4620 4619 
4 4115 4116 4621 4620 
4 4116 4117 4622 4621 
4 4117 4118 4623 4622 
4 4118 4119 4624 4623 
4 4119 4120 4625 4624 
4 4120 4121 4626 4625 
4 4121 4122 4627 4626 
4 4122 4123 4628 4627 
4 4123 4124 4629 4628 
4 4124 4125 4630 4629 
4 4125 4126 4631 4630 
4 4126 4127 4632 4631 
4 4127 4128 4633 4632 
4 4128 4129 4634 4633 
4 4129 4130 4635 4634 
4 4130 4131 4636 4635 
4 4131 4132 4637 4636 
4 4132 4133 4638 4637 
4 4133 4134 4639 4638 
4 4134 4135 4640 4639 
4 4135 4136 4641 4640 
4 4136 4137 4642 4641 
4 4137 4138 4643 4642 
4 4138 4139 4644 4643 
4 4139 4140 4645 4644 
4 4140 4141 4514 4645 
4 3980 3981 4646 4513 
4 3981 3982 3983 4646 
4 3624 4233 4647 3623 
4 4233 4234 4648 4647 
4 4234 4235 4649 4648 
4 4235 4651 4650 4649 
4 4235 4236 4652 4651 
4 4236 4237 4653 4652 
4 4237 4238 4654 4653 
4 4238 4239 4655 4654 
4 4239 4277 4656 4655 
4 4278 4279 4658 4657 
4 4279 4280 4659 4658 
4 4280 4281 4660 4659 
4 4281 4282 4661 4660 
4 4282 4283 4662 4661 
4 4283 4284 4663 4662 
4 4284 4285 4664 4663 
4 4286 4287 4664 4285 
4 4287 4666 4665 4664 
4 4287 4288 4667 4666 
4 4288 4289 4668 4667 
4 4289 4290 4669 4668 
4 4290 4291 4670 4669 
4 4291 4292 4671 4670 
4 4292 4293 4672 4671 
4 4293 4294 4673 4672 
4 4294 4295 4674 4673 
4 4295 4296 4675 4674 
4 4296 4014 4676 4675 
4 4014 4015 4677 4676 
4 4015 4016 4678 4677 
4 4016 4017 4679 4678 
4 4017 4018 4680 4679 
4 4018 4682 4681 4680 
4 4018 4019 4683 4682 
4 4019 4020 4684 4683 
4 4020 4021 4685 4684 
4 4021 4022 4686 4685 
4 4022 4023 4256 4686 
4 4277 4278 4657 4687 
4 4656 4277 4687 4688 
4 4214 4215 4260 4261 
4 4256 4257 4689 4686 
4 4257 4258 4690 4689 
4 4258 4259 4691 4690 
4 4259 4693 4692 4691 
4 4259 4260 4215 4693 
4 4692 4216 4694 4691 
4 4216 4217 4695 4694 
4 4217 4218 4696 4695 
4 4218 4219 4697 4696 
4 4219 4220 4698 4697 
4 4220 4221 4699 4698 
4 4221 4222 4700 4699 
4 4222 4223 4701 4700 
4 4223 4143 4144 4701 
4 4608 4609 4702 4607 
4 4609 4610 4703 4702 
4 4610 4611 4704 4703 
4 4611 4612 4705 4704 
4 4612 4613 4706 4705 
4 4613 4614 4707 4706 
4 4614 4615 4708 4707 
4 4615 4616 4709 4708 
4 4616 4617 4710 4709 
4 4617 4618 4711 4710 
4 4618 4619 4712 4711 
4 4619 4620 4713 4712 
4 4620 4621 4714 4713 
4 4621 4622 4715 4714 
4 4622 4623 4716 4715 
4 4623 4624 4717 4716 
4 4624 4625 4718 4717 
4 4625 4626 4719 4718 
4 4626 4627 4720 4719 
4 4627 4628 4721 4720 
4 4628 4629 4722 4721 
4 4629 4630 4723 4722 
4 4630 4631 4724 4723 
4 4631 4632 4725 4724 
4 4632 4633 4726 4725 
4 4633 4634 4727 4726 
4 4634 4635 4728 4727 
4 4635 4636 4729 4728 
4 4636 4637 4730 4729 
4 4637 4638 4731 4730 
4 4638 4639 4732 4731 
4 4639 4640 4733 4732 
4 4640 4641 4734 4733 
4 4641 4642 4735 4734 
4 4642 4643 4736 4735 
4 4643 4644 4737 4736 
4 4644 4645 4738 4737 
4 4645 4514 4515 4738 
4 4457 4458 4739 4541 
4 4458 4459 4740 4739 
4 4459 4742 4741 4740 
4 4459 4460 4743 4742 
4 4460 4461 4744 4743 
4 4461 4462 4745 4744 
4 4462 4463 4746 4745 
4 4463 4464 4747 4746 
4 4464 4465 4748 4747 
4 4465 4466 4749 4748 
4 4466 4467 4750 4749 
4 4467 4468 4751 4750 
4 4468 4469 4752 4751 
4 4470 4471 4752 4469 
4 4471 4472 4753 4752 
4 4472 4755 4754 4753 
4 4472 4473 4756 4755 
4 4473 4474 4757 4756 
4 4474 4475 4758 4757 
4 4475 4476 4759 4758 
4 4476 4477 4760 4759 
4 4477 4478 4761 4760 
4 4478 4479 4762 4761 
4 4480 4481 4762 4479 
4 4481 4482 4763 4762 
4 4482 4483 4484 4763 
4 4174 4175 4764 4173 
4 4175 4176 4765 4764 
4 4176 4177 4766 4765 
4 4177 4178 4767 4766 
4 4178 4179 4768 4767 
4 4179 4180 4769 4768 
4 4180 4181 4770 4769 
4 4181 4772 4771 4770 
4 4181 4182 4773 4772 
4 4182 4183 4774 4773 
4 4183 4184 4775 4774 
4 4184 4185 4776 4775 
4 4185 4186 4777 4776 
4 4186 4187 4778 4777 
4 4187 4492 4779 4778 
4 4492 4493 4780 4779 
4 4493 4494 4781 4780 
4 4494 4495 4782 4781 
4 4495 4496 4783 4782 
4 4496 4552 4784 4783 
4 4496 4497 4785 4552 
4 4497 4498 4786 4785 
4 4498 4499 4787 4786 
4 4499 4500 4788 4787 
4 4500 4501 4789 4788 
4 4501 4502 4790 4789 
4 4502 4503 4791 4790 
4 4503 4504 4792 4791 
4 4504 4505 4793 4792 
4 4519 4520 4794 4518 
4 4520 4521 4795 4794 
4 4521 4797 4796 4795 
4 4521 4522 4798 4797 
4 4522 4523 4799 4798 
4 3983 4268 5004 4646 
4 4268 4269 5003 5004 
4 4269 4270 4800 5003 
4 4270 4271 4801 4800 
4 4271 4272 4802 4801 
4 4272 4273 4803 4802 
4 4273 4274 4804 4803 
4 4274 4275 4805 4804 
4 4275 4382 4806 4805 
4 4382 4383 4807 4806 
4 4383 4384 4808 4807 
4 4384 4385 4386 4808 
4 3623 4647 4809 4307 
4 4647 4648 4810 4809 
4 4648 4649 4811 4810 
4 4649 4650 4812 4811 
4 4650 4814 4813 4812 
4 4650 4651 4815 4814 
4 4651 4652 4816 4815 
4 4652 4653 4817 4816 
4 4653 4654 4818 4817 
4 4654 4655 4819 4818 
4 4655 4656 4820 4819 
4 4656 4688 4821 4820 
4 4688 4823 4822 4821 
4 4688 4687 4824 4823 
4 4687 4657 4825 4824 
4 4657 4658 4826 4825 
4 4658 4659 4827 4826 
4 4659 4660 4828 4827 
4 4660 4661 4829 4828 
4 4820 4821 4832 4819 
4 4821 4822 4833 4832 
4 4822 4835 4834 4833 
4 4822 4823 4836 4835 
4 4823 4824 4837 4836 
4 4824 4825 4838 4837 
4 4825 4826 4839 4838 
4 4828 4829 5039 4839 
4 4829 4830 4840 5039 
4 4830 4831 4841 4840 
4 4831 4843 4842 4841 
4 4831 4665 4844 4843 
4 4665 4666 4845 4844 
4 4666 4667 4846 4845 
4 4667 4668 4847 4846 
4 4668 4669 4848 4847 
4 4669 4670 4849 4848 
4 4670 4671 4850 4849 
4 4671 4672 4851 4850 
4 4672 4673 4852 4851 
4 4673 4674 4853 4852 
4 4674 4675 4854 4853 
4 4675 4676 4855 4854 
4 4676 4677 4856 4855 
4 4677 4678 4857 4856 
4 4678 4679 4858 4857 
4 4679 4680 4859 4858 
4 4680 4681 4860 4859 
4 4681 4862 4861 4860 
4 4681 4682 4863 4862 
4 4682 4683 4864 4863 
4 4683 4684 4865 4864 
4 4684 4685 4866 4865 
4 4685 4686 4689 4866 
4 4173 4764 4171 4172 
4 4764 4765 4867 4171 
4 4765 4766 4868 4867 
4 4766 4767 4869 4868 
4 4767 4768 4870 4869 
4 4768 4769 4871 4870 
4 4769 4770 4872 4871 
4 4770 4771 4873 4872 
4 4771 4875 4874 4873 
4 4771 4772 4876 4875 
4 4772 4773 4877 4876 
4 4773 4774 4878 4877 
4 4774 4775 4879 4878 
4 4775 4776 4880 4879 
4 4776 4777 4881 4880 
4 4777 4778 4882 4881 
4 4778 4779 4883 4882 
4 4779 4780 4884 4883 
4 4780 4781 4885 4884 
4 4781 4782 4886 4885 
4 4782 4783 4887 4886 
4 4783 4784 4888 4887 
4 4304 4305 4889 4491 
4 4305 4306 4308 4889 
4 4691 4694 4890 4690 
4 4694 4695 4891 4890 
4 4695 4696 4892 4891 
4 4696 4697 4893 4892 
4 4697 4698 4894 4893 
4 4698 4699 4895 4894 
4 4699 4700 4896 4895 
4 4700 4701 4897 4896 
4 4701 4144 4898 4897 
4 4144 4145 4899 4898 
4 4145 4146 4900 4899 
4 4146 4147 4901 4900 
4 4147 4148 4902 4901 
4 4148 4149 4903 4902 
4 4149 4150 4904 4903 
4 4150 4151 4905 4904 
4 4151 4152 4906 4905 
4 4152 4908 4907 4906 
4 4152 4153 4909 4908 
4 4153 4154 4910 4909 
4 4154 4155 4911 4910 
4 4155 4156 4912 4911 
4 4156 4157 4913 4912 
4 4157 4158 4914 4913 
4 4158 4159 4915 4914 
4 4159 4160 4916 4915 
4 4160 4161 4917 4916 
4 4161 4162 4918 4917 
4 4162 4163 4919 4918 
4 4163 4164 4920 4919 
4 4164 4165 4921 4920 
4 4165 4166 4922 4921 
4 4166 4167 4923 4922 
4 4167 4925 4924 4923 
4 4167 4168 4926 4925 
4 4168 4169 4927 4926 
4 4169 4170 4928 4927 
4 4170 4171 4867 4928 
4 5124 4525 4929 5123 
4 4525 4526 4930 4929 
4 4526 4527 4931 4930 
4 4527 4528 4932 4931 
4 4528 4529 4933 4932 
4 4529 4530 4934 4933 
4 4530 4531 4935 4934 
4 4531 4532 4936 4935 
4 4532 4533 4937 4936 
4 4533 4534 4938 4937 
4 4535 4536 4940 4939 
4 4536 4537 4941 4940 
4 4537 4538 4942 4941 
4 4538 4539 4943 4942 
4 4539 4540 4944 4943 
4 4540 4541 4739 4944 
4 4552 4785 4786 4945 
4 4786 4787 4946 4945 
4 4308 4307 5168 4889 
4 4307 4809 5167 5168 
4 4809 4810 5166 5167 
4 4810 4811 4947 5166 
4 4811 4812 4948 4947 
4 4812 4813 4949 4948 
4 4813 4951 4950 4949 
4 4813 4814 4952 4951 
4 4814 4815 4953 4952 
4 4815 4816 4954 4953 
4 4816 4817 4955 4954 
4 4817 4818 4956 4955 
4 4818 4819 4832 4956 
4 4689 4690 4957 4866 
4 4690 4890 4958 4957 
4 4890 4891 4959 4958 
4 4891 4892 4960 4959 
4 4892 4893 4961 4960 
4 4893 4894 4962 4961 
4 4894 4895 4963 4962 
4 4895 4896 4964 4963 
4 4896 4897 4965 4964 
4 4897 4898 4966 4965 
4 4898 4899 4967 4966 
4 4899 4900 4968 4967 
4 4900 4901 4969 4968 
4 4901 4902 4970 4969 
4 4902 4903 4971 4970 
4 4903 4904 4972 4971 
4 4904 4905 4973 4972 
4 4905 4906 4974 4973 
4 4906 4907 4975 4974 
4 4907 4977 4976 4975 
4 4907 4908 4978 4977 
4 4908 4909 4979 4978 
4 4909 4910 4980 4979 
4 4911 4912 4980 4910 
4 4912 4913 4981 4980 
4 4913 4914 4982 4981 
4 4914 4915 4983 4982 
4 4915 4916 4984 4983 
4 4916 4917 4985 4984 
4 4917 4918 4986 4985 
4 4919 4920 4986 4918 
4 4920 4921 4987 4986 
4 4921 4922 4988 4987 
4 4922 4923 4989 4988 
4 4923 4924 4990 4989 
4 4924 4992 4991 4990 
4 4924 4925 4993 4992 
4 4925 4926 4994 4993 
4 4926 4927 4995 4994 
4 4927 4928 4996 4995 
4 4928 4867 4868 4996 
4 5112 4507 4997 5111 
4 4507 4508 4998 4997 
4 4508 4509 4999 4998 
4 4509 5001 5000 4999 
4 4509 4510 5002 5001 
4 4510 4511 5003 5002 
4 4511 4512 5004 5003 
4 4512 4513 4646 5004 
4 4739 4740 5005 4944 
4 4740 4741 5006 5005 
4 4741 5008 5007 5006 
4 4741 4742 5009 5008 
4 4742 4743 5010 5009 
4 4743 4744 5011 5010 
4 4745 4746 5011 4744 
4 4746 4747 5012 5011 
4 4747 4748 5013 5012 
4 4748 4749 5014 5013 
4 4749 4750 5015 5014 
4 4750 4751 5016 5015 
4 4751 4752 5017 5016 
4 4752 4753 5018 5017 
4 4753 4754 5019 5018 
4 4754 5021 5020 5019 
4 4754 4755 5022 5021 
4 4755 4756 5023 5022 
4 4756 4757 5024 5023 
4 4757 4758 5025 5024 
4 4758 4759 5026 5025 
4 4759 4760 5027 5026 
4 4760 4761 5028 5027 
4 4761 4762 5029 5028 
4 4762 4763 5030 5029 
4 4763 4484 4485 5030 
4 4832 4833 5031 4956 
4 4833 4834 5032 5031 
4 4834 5034 5033 5032 
4 4834 4835 5035 5034 
4 4835 4836 5036 5035 
4 4836 4837 5037 5036 
4 4837 4838 5038 5037 
4 4838 4839 5039 5038 
4 4840 4841 5041 5040 
4 4841 4842 5042 5041 
4 4842 5044 5043 5042 
4 4842 4843 5045 5044 
4 4843 4844 5046 5045 
4 4844 4845 5047 5046 
4 4845 4846 5048 5047 
4 4846 4847 5049 5048 
4 4847 4848 5050 5049 
4 4848 4849 5051 5050 
4 4849 4850 5052 5051 
4 4850 4851 5053 5052 
4 4851 4852 5054 5053 
4 4852 4853 5055 5054 
4 4853 4854 5056 5055 
4 4854 4855 5057 5056 
4 4855 4856 5058 5057 
4 4856 4857 5059 5058 
4 4857 4858 5060 5059 
4 4858 4859 5061 5060 
4 4859 4860 5062 5061 
4 4860 4861 5063 5062 
4 4861 5065 5064 5063 
4 4861 4862 5066 5065 
4 4862 4863 5067 5066 
4 4863 4864 5068 5067 
4 4864 4865 5069 5068 
4 4865 4866 4957 5069 
4 4607 4702 5070 4606 
4 4702 4703 5071 5070 
4 4703 4704 5072 5071 
4 4704 4705 5073 5072 
4 4705 4706 5074 5073 
4 4706 4707 5075 5074 
4 4707 4708 5076 5075 
4 4708 4709 5077 5076 
4 4710 4711 5079 5078 
4 4711 4712 5080 5079 
4 4712 4713 5081 5080 
4 4713 4714 5082 5081 
4 4714 4715 5083 5082 
4 4715 4716 5084 5083 
4 4716 4717 5085 5084 
4 4717 4718 5086 5085 
4 4718 4719 5087 5086 
4 4719 4720 5088 5087 
4 4720 4721 5089 5088 
4 4721 4722 5090 5089 
4 4722 4723 5091 5090 
4 4723 4724 5092 5091 
4 4724 4725 5093 5092 
4 4725 4726 5094 5093 
4 4726 4727 5095 5094 
4 4727 4728 5096 5095 
4 4728 4729 5097 5096 
4 4729 4730 5098 5097 
4 4730 4731 5099 5098 
4 4731 4732 5100 5099 
4 4732 4733 5101 5100 
4 4733 4734 5102 5101 
4 4734 4735 5103 5102 
4 4735 4736 5104 5103 
4 4736 4737 5113 5104 
4 4737 4738 4517 5113 
4 4738 4515 4516 4517 
4 4787 4788 5105 4946 
4 4788 4789 5106 5105 
4 4789 4790 5107 5106 
4 4790 4791 5108 5107 
4 4791 4792 5109 5108 
4 4792 4793 5110 5109 
4 4793 5112 5111 5110 
4 4505 4506 5112 4793 
4 4518 4794 5113 4517 
4 4794 4795 5104 5113 
4 4795 4796 5103 5104 
4 5003 4800 5114 5002 
4 4800 4801 5115 5114 
4 4801 4802 5116 5115 
4 4802 4803 5259 5116 
4 4803 4804 5258 5259 
4 4804 4805 5257 5258 
4 4805 4806 5117 5257 
4 4806 4807 5118 5117 
4 4807 4808 4542 5118 
4 5103 4796 5119 5102 
4 4796 4797 5120 5119 
4 4797 4798 5121 5120 
4 4798 4799 5122 5121 
4 4799 5124 5123 5122 
4 4534 4535 4939 5125 
4 4938 4534 5125 5126 
4 4523 4524 5124 4799 
4 4946 5105 5127 4551 
4 5105 5106 5128 5127 
4 5106 5107 5129 5128 
4 5107 5108 5130 5129 
4 5108 5109 5131 5130 
4 5109 5110 5132 5131 
4 5110 5111 5133 5132 
4 5111 4997 5134 5133 
4 4997 4998 5135 5134 
4 4998 4999 5136 5135 
4 4999 5000 5137 5136 
4 5000 5139 5138 5137 
4 5000 5001 5140 5139 
4 5001 5002 5114 5140 
4 5102 5119 5100 5101 
4 5119 5120 5349 5100 
4 5120 5121 5141 5349 
4 5121 5122 5142 5141 
4 5122 5123 5143 5142 
4 5123 4929 5144 5143 
4 4929 4930 5145 5144 
4 4930 4931 5146 5145 
4 4931 4932 5147 5146 
4 4932 4933 5148 5147 
4 4933 4934 5149 5148 
4 4934 4935 5150 5149 
4 4935 4936 5151 5150 
4 4936 4937 5152 5151 
4 4937 4938 5153 5152 
4 4938 5126 5154 5153 
4 5126 5156 5155 5154 
4 5126 5125 5157 5156 
4 5125 4939 5158 5157 
4 4939 4940 5159 5158 
4 4940 4941 5160 5159 
4 4941 4942 5161 5160 
4 4942 4943 5162 5161 
4 4943 4944 5005 5162 
4 4485 4486 5163 5030 
4 4486 4487 5164 5163 
4 4487 4488 5165 5164 
4 4488 4489 5167 5166 
4 4489 4490 5168 5167 
4 4490 4491 4889 5168 
4 5153 5154 5169 5152 
4 5154 5155 5170 5169 
4 5155 5172 5171 5170 
4 5155 5156 5173 5172 
4 5156 5157 5174 5173 
4 5157 5158 5159 5174 
4 4888 4553 4886 4887 
4 4553 4554 5278 4886 
4 4554 4555 5175 5278 
4 4555 4556 5176 5175 
4 4556 4557 5177 5176 
4 4557 4558 5178 5177 
4 4558 4559 5179 5178 
4 4559 4560 5180 5179 
4 4560 4561 5181 5180 
4 4561 4562 5182 5181 
4 4562 4563 5183 5182 
4 4563 4564 5184 5183 
4 4564 4565 5185 5184 
4 4565 4566 5186 5185 
4 4566 4567 5187 5186 
4 4567 4568 5188 5187 
4 4568 4569 5189 5188 
4 4569 4570 5190 5189 
4 4570 4571 5191 5190 
4 4571 4572 5192 5191 
4 4572 4573 5193 5192 
4 4573 4574 5194 5193 
4 4574 4575 5195 5194 
4 4575 4576 5196 5195 
4 4576 4577 5197 5196 
4 4577 4578 5198 5197 
4 4578 4579 5199 5198 
4 4579 4580 5200 5199 
4 4580 4581 5201 5200 
4 4581 4582 5202 5201 
4 4582 4583 5203 5202 
4 4583 4584 5204 5203 
4 4586 5207 5206 5205 
4 4586 4587 5208 5207 
4 4956 5031 5209 4955 
4 5031 5032 5210 5209 
4 5032 5033 5211 5210 
4 5033 5213 5212 5211 
4 5033 5034 5214 5213 
4 5034 5035 5215 5214 
4 5035 5036 5216 5215 
4 5036 5037 5217 5216 
4 5037 5038 5218 5217 
4 5038 5039 5219 5218 
4 5041 5042 5221 5220 
4 5042 5043 5222 5221 
4 5043 5224 5223 5222 
4 5043 5044 5225 5224 
4 5044 5045 5226 5225 
4 5045 5046 5227 5226 
4 5046 5047 5228 5227 
4 5047 5048 5229 5228 
4 5048 5049 5230 5229 
4 5049 5050 5231 5230 
4 5050 5051 5232 5231 
4 5051 5052 5233 5232 
4 5052 5053 5234 5233 
4 5053 5054 5235 5234 
4 5054 5055 5236 5235 
4 5055 5056 5237 5236 
4 5056 5057 5238 5237 
4 5057 5058 5239 5238 
4 5058 5059 5240 5239 
4 5059 5060 5241 5240 
4 5060 5061 5242 5241 
4 5061 5062 5243 5242 
4 5063 5064 5243 5062 
4 5064 5245 5244 5243 
4 5064 5065 5246 5245 
4 5065 5066 5247 5246 
4 5066 5067 5248 5247 
4 5067 5068 5249 5248 
4 5068 5069 5250 5249 
4 5069 4957 4958 5250 
4 5114 5115 5116 5140 
4 4551 5127 5251 4550 
4 5127 5128 5252 5251 
4 5128 5129 5262 5252 
4 5129 5130 5261 5262 
4 5130 5131 5260 5261 
4 5131 5132 5253 5260 
4 5132 5133 5254 5253 
4 5133 5134 5255 5254 
4 5135 5136 5255 5134 
4 5136 5137 5389 5255 
4 5137 5138 5256 5389 
4 5138 5258 5257 5256 
4 5138 5139 5259 5258 
4 5139 5140 5116 5259 
4 4542 4543 5455 5118 
4 4543 4544 5254 5455 
4 4544 4545 5253 5254 
4 4545 4546 5260 5253 
4 4546 4547 5261 5260 
4 4547 4548 5262 5261 
4 4868 4869 4995 4996 
4 4869 4870 5428 4995 
4 4870 4871 5263 5428 
4 4871 4872 5264 5263 
4 4872 4873 5265 5264 
4 4873 4874 5266 5265 
4 4874 5268 5267 5266 
4 4874 4875 5269 5268 
4 4875 4876 5270 5269 
4 4876 4877 5271 5270 
4 4877 4878 5272 5271 
4 4878 4879 5273 5272 
4 4879 4880 5274 5273 
4 4880 4881 5275 5274 
4 4882 4883 5275 4881 
4 4883 4884 5276 5275 
4 4884 4885 5277 5276 
4 4885 4886 5278 5277 
4 4709 4710 5078 5279 
4 5077 4709 5279 5280 
4 5166 4947 5281 4488 
4 4947 4948 5282 5281 
4 4948 4949 5579 5282 
4 4949 4950 5578 5579 
4 4950 5284 5283 5578 
4 4950 4951 5285 5284 
4 4951 4952 5286 5285 
4 4952 4953 5287 5286 
4 4953 4954 5288 5287 
4 4954 4955 5209 5288 
4 5005 5006 5289 5162 
4 5006 5007 5290 5289 
4 5007 5292 5291 5290 
4 5007 5008 5293 5292 
4 5008 5009 5294 5293 
4 5009 5010 5295 5294 
4 5010 5011 5296 5295 
4 5011 5012 5297 5296 
4 5012 5013 5298 5297 
4 5013 5014 5299 5298 
4 5014 5015 5300 5299 
4 5015 5016 5301 5300 
4 5016 5017 5302 5301 
4 5017 5018 5303 5302 
4 5018 5019 5304 5303 
4 5019 5020 5305 5304 
4 5020 5307 5306 5305 
4 5020 5021 5308 5307 
4 5021 5022 5309 5308 
4 5022 5023 5310 5309 
4 5023 5024 5311 5310 
4 5024 5025 5312 5311 
4 5025 5026 6690 5312 
4 5028 5029 5314 6691 
4 5029 5030 5163 5314 
4 4606 5070 5315 4605 
4 5070 5071 5316 5315 
4 5071 5072 5317 5316 
4 5072 5073 5318 5317 
4 5073 5074 5319 5318 
4 5074 5075 5320 5319 
4 5075 5076 5321 5320 
4 5076 5077 5322 5321 
4 5077 5280 5323 5322 
4 5280 5325 5324 5323 
4 5280 5279 5326 5325 
4 5279 5078 5327 5326 
4 5078 5079 5328 5327 
4 5079 5080 5329 5328 
4 5080 5081 5330 5329 
4 5081 5082 5331 5330 
4 5082 5083 5332 5331 
4 5083 5084 5333 5332 
4 5084 5085 5334 5333 
4 5085 5086 5335 5334 
4 5086 5087 5336 5335 
4 5087 5088 5337 5336 
4 5088 5089 5338 5337 
4 5089 5090 5339 5338 
4 5090 5091 5340 5339 
4 5091 5092 5341 5340 
4 5092 5093 5342 5341 
4 5093 5094 5343 5342 
4 5094 5095 5344 5343 
4 5095 5096 5345 5344 
4 5096 5097 5346 5345 
4 5097 5098 5347 5346 
4 5098 5099 5348 5347 
4 5099 5100 5349 5348 
4 5349 5141 5350 5348 
4 5141 5142 5351 5350 
4 5142 5143 5352 5351 
4 5143 5144 5353 5352 
4 5144 5145 5354 5353 
4 5145 5146 5355 5354 
4 5146 5147 5356 5355 
4 5147 5148 5357 5356 
4 5148 5149 5358 5357 
4 5149 5150 5359 5358 
4 5150 5151 5360 5359 
4 5151 5152 5169 5360 
4 5159 5160 5361 5174 
4 5160 5161 5362 5361 
4 5161 5162 5289 5362 
4 4588 4589 5363 5208 
4 4589 4590 5364 5363 
4 4590 4591 5365 5364 
4 4591 4592 5366 5365 
4 4592 4593 5367 5366 
4 4593 4594 5368 5367 
4 4594 4595 5369 5368 
4 4595 4596 5370 5369 
4 4596 4597 5371 5370 
4 4597 4598 5372 5371 
4 4598 4599 5373 5372 
4 4599 4600 5374 5373 
4 4600 4601 5375 5374 
4 4602 4603 5377 5376 
4 4603 4604 5378 5377 
4 4604 4605 5379 5378 
4 4605 5315 5380 5379 
4 5315 5316 5381 5380 
4 5316 5317 5382 5381 
4 5317 5318 5383 5382 
4 5318 5319 5384 5383 
4 5319 5320 5385 5384 
4 5320 5321 5386 5385 
4 5321 5322 5323 5386 
4 4601 4602 5376 5387 
4 5375 4601 5387 5388 
4 5257 5117 5389 5256 
4 5117 5118 5455 5389 
4 5163 5164 5390 5314 
4 5164 5165 5391 5390 
4 4958 4959 5392 5250 
4 4959 4960 5393 5392 
4 4960 4961 5394 5393 
4 4961 4962 5395 5394 
4 4962 4963 5396 5395 
4 4963 4964 5397 5396 
4 4964 4965 5398 5397 
4 4965 4966 5399 5398 
4 4966 4967 5400 5399 
4 4968 4969 5400 4967 
4 4969 4970 5401 5400 
4 4970 4971 5402 5401 
4 4971 4972 5403 5402 
4 4972 4973 5404 5403 
4 4973 4974 5405 5404 
4 4974 4975 5406 5405 
4 4975 4976 5407 5406 
4 4976 5409 5408 5407 
4 4976 4977 5410 5409 
4 4981 4982 5413 5412 
4 4982 4983 5414 5413 
4 4983 4984 5415 5414 
4 4984 4985 5416 5415 
4 4985 4986 5417 5416 
4 4986 4987 5418 5417 
4 4987 4988 5419 5418 
4 4988 4989 5420 5419 
4 4989 4990 5421 5420 
4 4990 4991 5422 5421 
4 4991 5424 5423 5422 
4 4991 4992 5425 5424 
4 4992 4993 5426 5425 
4 4993 4994 5427 5426 
4 4994 4995 5428 5427 
4 5323 5324 5429 5386 
4 5324 5431 5430 5429 
4 5324 5325 5432 5431 
4 5325 5326 5433 5432 
4 5326 5327 5434 5433 
4 5327 5328 5435 5434 
4 5328 5329 5436 5435 
4 5329 5330 5437 5436 
4 5330 5331 5438 5437 
4 5331 5332 5439 5438 
4 5332 5333 5440 5439 
4 5333 5334 5441 5440 
4 5334 5335 5442 5441 
4 5335 5336 5443 5442 
4 5336 5337 5444 5443 
4 5337 5338 5445 5444 
4 5338 5339 5446 5445 
4 5339 5340 5447 5446 
4 5340 5341 5448 5447 
4 5341 5342 5449 5448 
4 5342 5343 5450 5449 
4 5343 5344 5451 5450 
4 5344 5345 5452 5451 
4 5345 5346 5453 5452 
4 5346 5347 5454 5453 
4 5347 5348 5350 5454 
4 5255 5389 5455 5254 
4 5209 5210 5456 5288 
4 5210 5211 5457 5456 
4 5211 5212 5458 5457 
4 5212 5460 5459 5458 
4 5212 5213 5461 5460 
4 5213 5214 5462 5461 
4 5214 5215 5463 5462 
4 5215 5216 5464 5463 
4 5216 5217 5465 5464 
4 5217 5218 5466 5465 
4 5218 5219 6718 5466 
4 5220 5221 5469 5468 
4 5221 5222 5470 5469 
4 5222 5223 5471 5470 
4 5223 5473 5472 5471 
4 5223 5224 5474 5473 
4 5224 5225 5475 5474 
4 5225 5226 5476 5475 
4 5226 5227 5477 5476 
4 5227 5228 5478 5477 
4 5228 5229 5479 5478 
4 5229 5230 5480 5479 
4 5230 5231 5481 5480 
4 5231 5232 5482 5481 
4 5232 5233 5483 5482 
4 5233 5234 5484 5483 
4 5234 5235 5485 5484 
4 5235 5236 5486 5485 
4 5236 5237 5487 5486 
4 5237 5238 5488 5487 
4 5238 5239 5489 5488 
4 5239 5240 5490 5489 
4 5278 5175 5493 5277 
4 5175 5176 5494 5493 
4 5176 5177 5495 5494 
4 5177 5178 5496 5495 
4 5178 5179 5497 5496 
4 5179 5180 5498 5497 
4 5180 5181 5499 5498 
4 5181 5182 5500 5499 
4 5182 5183 5501 5500 
4 5183 5184 5502 5501 
4 5184 5185 5503 5502 
4 5185 5186 5504 5503 
4 5186 5187 5505 5504 
4 5187 5188 5506 5505 
4 5188 5189 5507 5506 
4 5189 5190 5508 5507 
4 5190 5191 5509 5508 
4 5191 5192 5510 5509 
4 5192 5193 5511 5510 
4 5193 5194 5512 5511 
4 5194 5195 5513 5512 
4 5195 5196 5514 5513 
4 5196 5197 5515 5514 
4 5197 5198 5516 5515 
4 5198 5199 5517 5516 
4 5199 5200 5518 5517 
4 5200 5201 5519 5518 
4 5201 5202 5520 5519 
4 5202 5203 5521 5520 
4 5203 5204 5522 5521 
4 5205 5206 5524 5523 
4 5277 5493 5636 5276 
4 5493 5494 5635 5636 
4 5494 5495 5634 5635 
4 5495 5496 5633 5634 
4 5496 5497 5632 5633 
4 5497 5498 5631 5632 
4 5498 5499 5818 5631 
4 5499 5500 5817 5818 
4 5500 5501 5816 5817 
4 5501 5502 5815 5816 
4 5502 5503 5814 5815 
4 5503 5504 5525 5814 
4 5504 5505 5526 5525 
4 5505 5506 5527 5526 
4 5506 5507 5528 5527 
4 5507 5508 5529 5528 
4 5508 5509 5530 5529 
4 5509 5510 5531 5530 
4 5510 5511 5532 5531 
4 5511 5512 5533 5532 
4 5512 5513 5534 5533 
4 5513 5514 5535 5534 
4 5514 5515 5536 5535 
4 5515 5516 5537 5536 
4 5516 5517 5538 5537 
4 5517 5518 5539 5538 
4 5518 5519 5540 5539 
4 5519 5520 5541 5540 
4 5520 5521 5542 5541 
4 5521 5522 5543 5542 
4 5523 5524 5543 5522 
4 5524 5545 5544 5543 
4 5524 5206 5546 5545 
4 5206 5207 5547 5546 
4 5207 5208 5548 5547 
4 5208 5363 5549 5548 
4 5363 5364 5550 5549 
4 5364 5365 5551 5550 
4 5365 5366 5552 5551 
4 5366 5367 5553 5552 
4 5367 5368 5554 5553 
4 5368 5369 5555 5554 
4 5369 5370 5556 5555 
4 5370 5371 5557 5556 
4 5371 5372 5558 5557 
4 5372 5373 5559 5558 
4 5373 5374 5560 5559 
4 5374 5375 5561 5560 
4 5375 5388 5562 5561 
4 5388 5564 5563 5562 
4 5388 5387 5565 5564 
4 5387 5376 5566 5565 
4 5376 5377 5567 5566 
4 5377 5378 5568 5567 
4 5378 5379 5569 5568 
4 5379 5380 5570 5569 
4 5380 5381 5571 5570 
4 5381 5382 5572 5571 
4 5382 5383 5573 5572 
4 5383 5384 5574 5573 
4 5384 5385 5575 5574 
4 5385 5386 5429 5575 
4 5314 5390 5576 6691 
4 5390 5391 5577 5576 
4 6693 5579 5578 6695 
4 5579 6693 5580 5282 
4 4488 5281 5581 5165 
4 5281 5282 5580 5581 
4 5289 5290 5582 5362 
4 5290 5291 5583 5582 
4 5291 5585 5584 5583 
4 5291 5292 5586 5585 
4 5292 5293 5587 5586 
4 5293 5294 5588 5587 
4 5294 5295 5589 5588 
4 5295 5296 5590 5589 
4 5296 5297 5591 5590 
4 5297 5298 5592 5591 
4 5298 5299 5593 5592 
4 5299 5300 5594 5593 
4 5300 5301 5595 5594 
4 5301 5302 5596 5595 
4 5302 5303 5597 5596 
4 5303 5304 5598 5597 
4 5304 5305 5599 5598 
4 5305 5306 5600 5599 
4 5306 5602 5601 5600 
4 5306 5307 5603 5602 
4 5307 5308 5604 5603 
4 5308 5309 5605 5604 
4 5309 5310 5606 5605 
4 5310 5311 5607 5606 
4 5312 6690 5576 5577 
4 5350 5351 5608 5454 
4 5351 5352 6696 5608 
4 5354 5355 5610 6697 
4 5355 5356 5611 5610 
4 5356 5357 5612 5611 
4 5357 5358 5613 5612 
4 5358 5359 5614 5613 
4 5359 5360 5615 5614 
4 5360 5169 5616 5615 
4 5169 5170 5617 5616 
4 5170 5171 5618 5617 
4 5171 5620 5619 5618 
4 5171 5172 5621 5620 
4 5172 5173 5622 5621 
4 5173 5174 5361 5622 
4 5428 5263 5623 5427 
4 5263 5264 5624 5623 
4 5264 5265 5625 5624 
4 5265 5266 5626 5625 
4 5266 5267 5627 5626 
4 5267 5629 5628 5627 
4 5267 5268 5630 5629 
4 5268 5269 5631 5630 
4 5269 5270 5632 5631 
4 5270 5271 5633 5632 
4 5272 5273 5635 5634 
4 5273 5274 5636 5635 
4 5274 5275 5276 5636 
4 5271 5272 5634 5633 
4 5578 5283 5607 6695 
4 5283 5637 5606 5607 
4 5288 5456 5638 5287 
4 5456 5457 5639 5638 
4 5457 5458 5640 5639 
4 5458 5459 5641 5640 
4 5459 5643 5642 5641 
4 5459 5460 5644 5643 
4 5460 5461 5645 5644 
4 5461 5462 5646 5645 
4 5462 5463 5647 5646 
4 5463 5464 5648 5647 
4 5464 5465 5649 5648 
4 5465 5466 5650 5649 
4 6717 5468 5652 5651 
4 5468 5469 5653 5652 
4 5469 5470 5654 5653 
4 5470 5471 5655 5654 
4 5471 5472 5656 5655 
4 5472 5658 5657 5656 
4 5472 5473 5659 5658 
4 5473 5474 5660 5659 
4 5474 5475 5661 5660 
4 5475 5476 5662 5661 
4 5476 5477 5663 5662 
4 5477 5478 5664 5663 
4 5478 5479 5665 5664 
4 5479 5480 5666 5665 
4 5480 5481 5667 5666 
4 5481 5482 5668 5667 
4 5482 5483 5669 5668 
4 5484 5485 5671 5670 
4 5485 5486 5672 5671 
4 5486 5487 5673 5672 
4 5487 5488 5674 5673 
4 5488 5489 5675 5674 
4 5489 5490 5676 5675 
4 5490 5491 5677 5676 
4 5491 5492 5678 5677 
4 5492 5680 5679 5678 
4 5492 5244 5681 5680 
4 5244 5245 5682 5681 
4 5245 5246 5683 5682 
4 5246 5247 5684 5683 
4 5247 5248 5685 5684 
4 5248 5249 5686 5685 
4 5249 5250 5392 5686 
4 5483 5484 5670 5687 
4 5669 5483 5687 5688 
4 5283 5284 5689 5637 
4 5284 5285 5690 5689 
4 5285 5286 5691 5690 
4 5286 5287 5638 5691 
4 5392 5393 5692 5686 
4 5393 5394 5693 5692 
4 5394 5395 5694 5693 
4 5395 5396 5695 5694 
4 5396 5397 5696 5695 
4 5397 5398 5697 5696 
4 5398 5399 5698 5697 
4 5399 5400 5699 5698 
4 5400 5401 5700 5699 
4 5401 5402 5701 5700 
4 5402 5403 5702 5701 
4 5403 5404 5703 5702 
4 5404 5405 5704 5703 
4 5405 5406 5705 5704 
4 5406 5407 5706 5705 
4 5407 5408 5707 5706 
4 5408 5709 5708 5707 
4 5408 5409 5710 5709 
4 5409 5410 5711 5710 
4 5410 5411 5712 5711 
4 5411 5412 5713 5712 
4 5412 5413 5714 5713 
4 5413 5414 5715 5714 
4 5414 5415 5716 5715 
4 5415 5416 5717 5716 
4 5416 5417 5718 5717 
4 5417 5418 5719 5718 
4 5418 5419 5720 5719 
4 5419 5420 5721 5720 
4 5420 5421 5722 5721 
4 5421 5422 5723 5722 
4 5422 5423 5724 5723 
4 5423 5726 5725 5724 
4 5423 5424 5727 5726 
4 5424 5425 5728 5727 
4 5425 5426 5729 5728 
4 5426 5427 5623 5729 
4 5361 5362 5582 5622 
4 5433 5434 5730 5432 
4 5434 5435 5731 5730 
4 5435 5436 5732 5731 
4 5436 5437 5733 5732 
4 5437 5438 5734 5733 
4 5438 5439 5735 5734 
4 5439 5440 5736 5735 
4 5440 5441 5737 5736 
4 5441 5442 5738 5737 
4 5442 5443 5739 5738 
4 5443 5444 5740 5739 
4 5444 5445 5741 5740 
4 5445 5446 5742 5741 
4 5446 5447 5743 5742 
4 5447 5448 5744 5743 
4 5448 5449 5745 5744 
4 5449 5450 5746 5745 
4 5450 5451 5747 5746 
4 5451 5452 5748 5747 
4 5452 5453 5749 5748 
4 5453 5454 5608 5749 
4 5546 5547 5750 5545 
4 5547 5548 5751 5750 
4 5548 5549 5752 5751 
4 5549 5550 5753 5752 
4 5550 5551 5754 5753 
4 5551 5552 5755 5754 
4 5552 5553 5756 5755 
4 5553 5554 5757 5756 
4 5554 5555 5758 5757 
4 5555 5556 5759 5758 
4 5556 5557 5760 5759 
4 5557 5558 5761 5760 
4 5558 5559 5762 5761 
4 5559 5560 5763 5762 
4 5560 5561 5562 5763 
4 5562 5563 5764 5763 
4 5563 5766 5765 5764 
4 5563 5564 5767 5766 
4 5564 5565 5768 5767 
4 5565 5566 5769 5768 
4 5566 5567 5770 5769 
4 5567 5568 5771 5770 
4 5568 5569 5772 5771 
4 5569 5570 5773 5772 
4 5570 5571 5774 5773 
4 5571 5572 5775 5774 
4 5572 5573 5776 5775 
4 5573 5574 5777 5776 
4 5574 5575 5778 5777 
4 5575 5429 5779 5778 
4 5429 5430 5780 5779 
4 5430 5782 5781 5780 
4 5430 5431 5783 5782 
4 5431 5432 5730 5783 
4 5582 5583 5784 5622 
4 5583 5584 5785 5784 
4 5584 5787 5786 5785 
4 5584 5585 5788 5787 
4 5585 5586 5789 5788 
4 5586 5587 5790 5789 
4 5587 5588 5791 5790 
4 5588 5589 5792 5791 
4 5589 5590 5793 5792 
4 5590 5591 5794 5793 
4 5591 5592 5795 5794 
4 5592 5593 5796 5795 
4 5594 5595 5796 5593 
4 5595 5596 5797 5796 
4 5596 5597 5798 5797 
4 5597 5598 5799 5798 
4 5598 5599 5800 5799 
4 5599 5600 5801 5800 
4 5600 5601 5802 5801 
4 5601 5804 5803 5802 
4 5601 5602 5805 5804 
4 5602 5603 5806 5805 
4 5603 5604 5808 5806 
4 5604 5605 5807 5808 
4 5605 5606 5637 5807 
4 5637 5689 5690 5807 
4 5690 5691 5808 5807 
4 5623 5624 5809 5729 
4 5624 5625 5810 5809 
4 5625 5626 5811 5810 
4 5626 5627 5812 5811 
4 5627 5628 5813 5812 
4 5628 5815 5814 5813 
4 5628 5629 5816 5815 
4 5629 5630 5817 5816 
4 5630 5631 5818 5817 
4 5686 5692 5819 5685 
4 5692 5693 5820 5819 
4 5693 5694 5821 5820 
4 5694 5695 5822 5821 
4 5695 5696 5823 5822 
4 5696 5697 5824 5823 
4 5698 5699 5824 5697 
4 5699 5700 5825 5824 
4 5700 5701 5826 5825 
4 5701 5702 5827 5826 
4 5702 5703 5828 5827 
4 5703 5704 5829 5828 
4 5704 5705 5830 5829 
4 5705 5706 5831 5830 
4 5706 5707 5832 5831 
4 5707 5708 5833 5832 
4 5708 5835 5834 5833 
4 5708 5709 5836 5835 
4 5709 5710 5837 5836 
4 5710 5711 5838 5837 
4 5711 5712 5839 5838 
4 5712 5713 5840 5839 
4 5713 5714 5841 5840 
4 5714 5715 5842 5841 
4 5715 5716 5843 5842 
4 5716 5717 5844 5843 
4 5717 5718 5845 5844 
4 5718 5719 5846 5845 
4 5719 5720 5847 5846 
4 5720 5721 5848 5847 
4 5721 5722 5849 5848 
4 5722 5723 5850 5849 
4 5723 5724 5851 5850 
4 5724 5725 5852 5851 
4 5725 5854 5853 5852 
4 5725 5726 5855 5854 
4 5726 5727 5856 5855 
4 5727 5728 5857 5856 
4 5728 5729 5809 5857 
4 5608 6696 5858 5749 
4 6697 5610 5859 5858 
4 5610 5611 5860 5859 
4 5611 5612 5861 5860 
4 5612 5613 5862 5861 
4 5613 5614 5863 5862 
4 5614 5615 5864 5863 
4 5615 5616 5865 5864 
4 5616 5617 5866 5865 
4 5617 5618 5867 5866 
4 5618 5619 5868 5867 
4 5619 5870 5869 5868 
4 5619 5620 5871 5870 
4 5620 5621 5872 5871 
4 5621 5622 5784 5872 
4 5638 5639 5808 5691 
4 5639 5640 5806 5808 
4 5640 5641 5805 5806 
4 5641 5642 5804 5805 
4 5804 5642 5873 5803 
4 5642 5643 5874 5873 
4 5643 5644 5875 5874 
4 5644 5645 5876 5875 
4 5645 5646 5877 5876 
4 5646 5647 5878 5877 
4 5647 5648 5879 5878 
4 5648 5649 5880 5879 
4 5650 5651 5880 5649 
4 5651 5652 5881 5880 
4 5652 5653 5882 5881 
4 5653 5654 5883 5882 
4 5654 5655 5884 5883 
4 5655 5656 5885 5884 
4 5656 5657 5886 5885 
4 5657 6698 5887 5886 
4 5659 5660 5889 6699 
4 5660 5661 5890 5889 
4 5661 5662 5891 5890 
4 5662 5663 5892 5891 
4 5663 5664 5893 5892 
4 5664 5665 5894 5893 
4 5665 5666 5895 5894 
4 5666 5667 5896 5895 
4 5667 5668 5897 5896 
4 5668 5669 5898 5897 
4 5669 5688 6410 5898 
4 5688 5899 6409 6410 
4 5688 5687 5900 5899 
4 5687 5670 5901 5900 
4 5670 5671 5902 5901 
4 5671 5672 5903 5902 
4 5672 5673 5904 5903 
4 5673 5674 5905 5904 
4 5674 5675 5906 5905 
4 5675 5676 5907 5906 
4 5676 5677 5908 5907 
4 5677 5678 5909 5908 
4 5678 5679 5910 5909 
4 5679 5912 5911 5910 
4 5679 5680 5913 5912 
4 5680 5681 5914 5913 
4 5681 5682 5915 5914 
4 5682 5683 5916 5915 
4 5683 5684 5917 5916 
4 5684 5685 5819 5917 
4 5768 5769 5918 5767 
4 5769 5770 5919 5918 
4 5770 5771 5920 5919 
4 5771 5772 5921 5920 
4 5772 5773 5922 5921 
4 5773 5774 5923 5922 
4 5774 5775 5924 5923 
4 5775 5776 5925 5924 
4 5776 5777 5926 5925 
4 5777 5778 5927 5926 
4 5778 5779 5928 5927 
4 5779 5780 5929 5928 
4 5780 5781 5930 5929 
4 5781 5932 5931 5930 
4 5781 5782 5933 5932 
4 5782 5783 5934 5933 
4 5783 5730 5731 5934 
4 5814 5525 5935 5813 
4 5525 5526 5936 5935 
4 5526 5527 5937 5936 
4 5527 5528 5938 5937 
4 5528 5529 5939 5938 
4 5529 5530 5940 5939 
4 5530 5531 5941 5940 
4 5531 5532 5942 5941 
4 5532 5533 5943 5942 
4 5533 5534 5944 5943 
4 5534 5535 5945 5944 
4 5535 5536 5946 5945 
4 5536 5537 5947 5946 
4 5537 5538 5948 5947 
4 5538 5539 5949 5948 
4 5539 5540 5950 5949 
4 5540 5541 5951 5950 
4 5541 5542 5952 5951 
4 5542 5543 5544 5952 
4 5784 5785 5953 5872 
4 5785 5786 5954 5953 
4 5786 5956 5955 5954 
4 5786 5787 5957 5956 
4 5787 5788 5958 5957 
4 5788 5789 5959 5958 
4 5789 5790 5960 5959 
4 5790 5791 5961 5960 
4 5791 5792 5962 5961 
4 5792 5793 5963 5962 
4 5793 5794 5795 5963 
4 5795 5796 6098 5963 
4 5796 5797 5964 6098 
4 5797 5798 5965 5964 
4 5798 5799 5966 5965 
4 5799 5800 5967 5966 
4 5800 5801 5968 5967 
4 5801 5802 5969 5968 
4 5802 5803 5873 5969 
4 5858 5859 5748 5749 
4 5859 5860 5747 5748 
4 5860 5861 5746 5747 
4 5861 5862 5970 5746 
4 5862 5863 5971 5970 
4 5863 5864 5972 5971 
4 5864 5865 5973 5972 
4 5865 5866 6700 5973 
4 5868 5869 5975 6701 
4 5869 5977 5976 5975 
4 5869 5870 5978 5977 
4 5870 5871 5979 5978 
4 5871 5872 5953 5979 
4 5809 5810 5980 5857 
4 5810 5811 5981 5980 
4 5811 5812 5982 5981 
4 5812 5813 5935 5982 
4 5819 5820 5983 5917 
4 5820 5821 5984 5983 
4 5821 5822 5985 5984 
4 5822 5823 5986 5985 
4 5823 5824 5825 5986 
4 5763 5764 5987 5762 
4 5764 5765 5988 5987 
4 5765 5990 5989 5988 
4 5765 5766 5991 5990 
4 5766 5767 5918 5991 
4 5901 5902 5992 5900 
4 5902 5903 5993 5992 
4 5903 5904 5994 5993 
4 5904 5905 5995 5994 
4 5905 5906 5996 5995 
4 5906 5907 5997 5996 
4 5907 5908 5998 5997 
4 5908 5909 5999 5998 
4 5909 5910 6000 5999 
4 5910 5911 6001 6000 
4 5911 6003 6002 6001 
4 5911 5912 6004 6003 
4 5912 5913 6005 6004 
4 5913 5914 6006 6005 
4 5914 5915 6007 6006 
4 5915 5916 6008 6007 
4 5916 5917 5983 6008 
4 5935 5936 6009 5982 
4 5936 5937 6010 6009 
4 5937 5938 6011 6010 
4 5938 5939 6012 6011 
4 5939 5940 6013 6012 
4 5940 5941 6014 6013 
4 5941 5942 6015 6014 
4 5942 5943 6016 6015 
4 5943 5944 6017 6016 
4 5944 5945 6018 6017 
4 5945 5946 6019 6018 
4 5946 5947 6020 6019 
4 5947 5948 6021 6020 
4 5948 5949 6022 6021 
4 5949 5950 6023 6022 
4 5950 5951 6024 6023 
4 5951 5952 6025 6024 
4 5952 5544 6026 6025 
4 5544 5545 6027 6026 
4 5545 5750 6028 6027 
4 5750 5751 6029 6028 
4 5751 5752 6030 6029 
4 5752 5753 6031 6030 
4 5753 5754 6032 6031 
4 5754 5755 6033 6032 
4 5755 5756 6034 6033 
4 5756 5757 6035 6034 
4 5757 5758 6036 6035 
4 5758 5759 6037 6036 
4 5759 5760 6038 6037 
4 5760 5761 6039 6038 
4 5761 5762 5987 6039 
4 5731 5732 6040 5934 
4 5732 5733 6041 6040 
4 5733 5734 6042 6041 
4 5734 5735 6043 6042 
4 5735 5736 6044 6043 
4 5736 5737 6045 6044 
4 5737 5738 6046 6045 
4 5738 5739 6047 6046 
4 5739 5740 6048 6047 
4 5740 5741 6049 6048 
4 5741 5742 6050 6049 
4 5742 5743 6051 6050 
4 5743 5744 6052 6051 
4 5744 5745 6053 6052 
4 5745 5746 5970 6053 
4 5839 5840 6054 5838 
4 5840 5841 6055 6054 
4 5841 5842 6056 6055 
4 5842 5843 6057 6056 
4 5843 5844 6058 6057 
4 5844 5845 5846 6058 
4 5918 5919 6059 5991 
4 5919 5920 6060 6059 
4 5920 5921 6061 6060 
4 5921 5922 6062 6061 
4 5922 5923 6063 6062 
4 5923 5924 6064 6063 
4 5924 5925 6065 6064 
4 5925 5926 6066 6065 
4 5926 5927 6067 6066 
4 5927 5928 6068 6067 
4 5928 5929 5930 6068 
4 5930 5931 6190 6068 
4 5931 6070 6069 6190 
4 5931 5932 6071 6070 
4 5932 5933 6072 6071 
4 5933 5934 6073 6072 
4 5934 6040 6074 6073 
4 6040 6041 6075 6074 
4 6041 6042 6076 6075 
4 6042 6043 6077 6076 
4 6043 6044 6078 6077 
4 6044 6045 6079 6078 
4 6045 6046 6080 6079 
4 6046 6047 6081 6080 
4 6047 6048 6082 6081 
4 6048 6049 6083 6082 
4 6049 6050 6084 6083 
4 6050 6051 6085 6084 
4 6051 6052 6086 6085 
4 6052 6053 6087 6086 
4 6053 5970 5971 6087 
4 5954 5955 6088 5953 
4 5955 6090 6089 6088 
4 5955 5956 6091 6090 
4 5956 5957 6092 6091 
4 5957 5958 6093 6092 
4 5958 5959 6094 6093 
4 5959 5960 6095 6094 
4 5960 5961 6096 6095 
4 5961 5962 6097 6096 
4 5962 5963 6098 6097 
4 5846 5847 6099 6058 
4 5847 5848 6100 6099 
4 5848 5849 6101 6100 
4 5849 5850 6102 6101 
4 5850 5851 6103 6102 
4 5851 5852 6104 6103 
4 5852 5853 6105 6104 
4 5853 6107 6106 6105 
4 5853 5854 6108 6107 
4 5854 5855 6109 6108 
4 5855 5856 6110 6109 
4 5856 5857 5980 6110 
4 5825 5826 6111 5986 
4 5826 5827 6112 6111 
4 5827 5828 6113 6112 
4 5828 5829 6114 6113 
4 5829 5830 6115 6114 
4 5830 5831 6116 6115 
4 5831 5832 6117 6116 
4 5832 5833 6118 6117 
4 5833 5834 6119 6118 
4 5834 6121 6120 6119 
4 5834 5835 6122 6121 
4 5835 5836 6123 6122 
4 5836 5837 6124 6123 
4 5837 5838 6054 6124 
4 5971 5972 6086 6087 
4 5972 5973 6085 6086 
4 5973 6700 6125 6085 
4 6701 5975 6335 6125 
4 5975 5976 6126 6335 
4 5976 6128 6127 6126 
4 5976 5977 6129 6128 
4 5977 5978 6130 6129 
4 5978 5979 6131 6130 
4 5979 5953 6088 6131 
4 6098 5964 6132 6097 
4 5964 5965 6133 6132 
4 5965 5966 6134 6133 
4 5966 5967 6135 6134 
4 5967 5968 6136 6135 
4 5968 5969 6137 6136 
4 5969 5873 6138 6137 
4 5873 5874 6139 6138 
4 5874 5875 6140 6139 
4 5875 5876 6141 6140 
4 5876 5877 6142 6141 
4 5877 5878 6143 6142 
4 5878 5879 6144 6143 
4 5879 5880 5881 6144 
4 5982 6009 6145 5981 
4 6009 6010 6146 6145 
4 6011 6012 6259 6260 
4 6012 6013 6147 6259 
4 6013 6014 6148 6147 
4 6014 6015 6149 6148 
4 6015 6016 6150 6149 
4 6016 6017 6151 6150 
4 6017 6018 6152 6151 
4 6018 6019 6153 6152 
4 6019 6020 6154 6153 
4 6020 6021 6155 6154 
4 6021 6022 6156 6155 
4 6022 6023 6157 6156 
4 6023 6024 6158 6157 
4 6024 6025 6159 6158 
4 6025 6026 6160 6159 
4 6026 6027 6161 6160 
4 6027 6028 6162 6161 
4 6028 6029 6163 6162 
4 6029 6030 6164 6163 
4 6030 6031 6165 6164 
4 6031 6032 6166 6165 
4 6032 6033 6167 6166 
4 6033 6034 6168 6167 
4 6034 6035 6169 6168 
4 6035 6036 6170 6169 
4 6036 6037 6171 6170 
4 6037 6038 6172 6171 
4 6038 6039 6173 6172 
4 6039 5987 6174 6173 
4 5987 5988 6175 6174 
4 5988 5989 6176 6175 
4 5989 6178 6177 6176 
4 5989 5990 6179 6178 
4 5990 5991 6180 6179 
4 5991 6059 6181 6180 
4 6059 6060 6182 6181 
4 6060 6061 6183 6182 
4 6061 6062 6184 6183 
4 6062 6063 6185 6184 
4 6063 6064 6186 6185 
4 6064 6065 6187 6186 
4 6065 6066 6188 6187 
4 6066 6067 6189 6188 
4 6067 6068 6190 6189 
4 5983 5984 6191 6008 
4 5984 5985 6192 6191 
4 5985 5986 6111 6192 
4 5900 5992 6193 5899 
4 5992 5993 6194 6193 
4 5993 5994 6195 6194 
4 5994 5995 6196 6195 
4 5995 5996 6197 6196 
4 5996 5997 6198 6197 
4 5998 5999 6198 5997 
4 5999 6000 6199 6198 
4 6000 6001 6200 6199 
4 6001 6002 6201 6200 
4 6002 6203 6202 6201 
4 6003 6004 6203 6002 
4 6004 6005 6204 6203 
4 6005 6006 6205 6204 
4 6006 6007 6206 6205 
4 6007 6008 6191 6206 
4 5980 5981 6145 6110 
4 5881 5882 6207 6144 
4 5882 5883 6208 6207 
4 5883 5884 6209 6208 
4 5884 5885 6210 6209 
4 5885 5886 6211 6210 
4 5886 5887 6212 6211 
4 5887 6214 6213 6212 
4 5887 6698 6215 6214 
4 6699 5889 6591 6215 
4 5889 5890 6216 6591 
4 5890 5891 6217 6216 
4 5891 5892 6218 6217 
4 5892 5893 6219 6218 
4 5893 5894 6220 6219 
4 5894 5895 6221 6220 
4 5895 5896 6222 6221 
4 5896 5897 6223 6222 
4 6088 6089 6224 6131 
4 6089 6226 6225 6224 
4 6089 6090 6227 6226 
4 6090 6091 6228 6227 
4 6091 6092 6229 6228 
4 6092 6093 6230 6229 
4 6093 6094 6231 6230 
4 6094 6095 6232 6231 
4 6095 6096 6233 6232 
4 6096 6097 6234 6233 
4 6097 6132 6235 6234 
4 6132 6133 6236 6235 
4 6133 6134 6237 6236 
4 6134 6135 6238 6237 
4 6135 6136 6239 6238 
4 6136 6137 6240 6239 
4 6137 6138 6241 6240 
4 6138 6139 6242 6241 
4 6139 6140 6243 6242 
4 6140 6141 6244 6243 
4 6141 6142 6245 6244 
4 6142 6143 6246 6245 
4 6143 6144 6207 6246 
4 6054 6055 6247 6124 
4 6055 6056 6248 6247 
4 6056 6057 6249 6248 
4 6057 6058 6250 6249 
4 6058 6099 6251 6250 
4 6099 6100 6252 6251 
4 6100 6101 6253 6252 
4 6101 6102 6254 6253 
4 6102 6103 6255 6254 
4 6103 6104 6256 6255 
4 6104 6105 6257 6256 
4 6105 6106 6258 6257 
4 6106 6260 6259 6258 
4 6190 6069 6261 6189 
4 6069 6263 6262 6261 
4 6069 6070 6264 6263 
4 6070 6071 6265 6264 
4 6071 6072 6266 6265 
4 6072 6073 6267 6266 
4 6073 6074 6268 6267 
4 6074 6075 6269 6268 
4 6075 6076 6270 6269 
4 6076 6077 6271 6270 
4 6077 6078 6272 6271 
4 6078 6079 6273 6272 
4 6079 6080 6274 6273 
4 6080 6081 6275 6274 
4 6259 6147 6276 6258 
4 6147 6148 6277 6276 
4 6148 6149 6278 6277 
4 6149 6150 6279 6278 
4 6150 6151 6280 6279 
4 6151 6152 6281 6280 
4 6152 6153 6282 6281 
4 6153 6154 6283 6282 
4 6154 6155 6284 6283 
4 6155 6156 6285 6284 
4 6156 6157 6286 6285 
4 6157 6158 6287 6286 
4 6158 6159 6288 6287 
4 6159 6160 6289 6288 
4 6160 6161 6290 6289 
4 6161 6162 6291 6290 
4 6162 6163 6292 6291 
4 6163 6164 6293 6292 
4 6164 6165 6294 6293 
4 6165 6166 6295 6294 
4 6166 6167 6296 6295 
4 6167 6168 6297 6296 
4 6168 6169 6298 6297 
4 6169 6170 6299 6298 
4 6170 6171 6300 6299 
4 6171 6172 6301 6300 
4 6172 6173 6302 6301 
4 6173 6174 6303 6302 
4 6174 6175 6304 6303 
4 6175 6176 6305 6304 
4 6176 6177 6306 6305 
4 6177 6308 6307 6306 
4 6177 6178 6309 6308 
4 6178 6179 6310 6309 
4 6179 6180 6311 6310 
4 6180 6181 6312 6311 
4 6181 6182 6313 6312 
4 6182 6183 6314 6313 
4 6183 6184 6315 6314 
4 6184 6185 6316 6315 
4 6185 6186 6317 6316 
4 6186 6187 6318 6317 
4 6188 6189 6261 6319 
4 6187 6188 6319 6320 
4 6318 6187 6320 6321 
4 6111 6112 6349 6192 
4 6112 6113 6322 6349 
4 6113 6114 6323 6322 
4 6114 6115 6324 6323 
4 6115 6116 6325 6324 
4 6116 6117 6326 6325 
4 6117 6118 6327 6326 
4 6118 6119 6328 6327 
4 6119 6120 6329 6328 
4 6120 6331 6330 6329 
4 6120 6121 6332 6331 
4 6121 6122 6333 6332 
4 6122 6123 6334 6333 
4 6123 6124 6247 6334 
4 6106 6107 6146 6260 
4 6010 6011 6260 6146 
4 6085 6125 6335 6084 
4 6084 6335 6126 6083 
4 6126 6127 6082 6083 
4 6082 6127 6275 6081 
4 6127 6128 6336 6275 
4 6128 6129 6337 6336 
4 6129 6130 6338 6337 
4 6130 6131 6224 6338 
4 6409 5899 6193 6339 
4 6198 6199 6340 6197 
4 6199 6200 6341 6340 
4 6201 6202 6343 6342 
4 6202 6345 6344 6343 
4 6202 6203 6346 6345 
4 6203 6204 6347 6346 
4 6204 6205 6348 6347 
4 6205 6206 6349 6348 
4 6206 6191 6192 6349 
4 6258 6276 6350 6257 
4 6276 6277 6351 6350 
4 6277 6278 6352 6351 
4 6278 6279 6353 6352 
4 6279 6280 6354 6353 
4 6280 6281 6355 6354 
4 6281 6282 6356 6355 
4 6282 6283 6357 6356 
4 6283 6284 6358 6357 
4 6284 6285 6359 6358 
4 6285 6286 6360 6359 
4 6286 6287 6361 6360 
4 6287 6288 6362 6361 
4 6288 6289 6363 6362 
4 6289 6290 6364 6363 
4 6290 6291 6365 6364 
4 6291 6292 6366 6365 
4 6292 6293 6367 6366 
4 6293 6294 6368 6367 
4 6294 6295 6369 6368 
4 6295 6296 6370 6369 
4 6296 6297 6371 6370 
4 6297 6298 6372 6371 
4 6298 6299 6373 6372 
4 6299 6300 6374 6373 
4 6300 6301 6375 6374 
4 6301 6302 6376 6375 
4 6302 6303 6377 6376 
4 6303 6304 6378 6377 
4 6304 6305 6379 6378 
4 6305 6306 6380 6379 
4 6306 6307 6381 6380 
4 6307 6522 6382 6381 
4 6307 6308 6703 6522 
4 6310 6311 6383 6704 
4 6311 6312 6384 6383 
4 6312 6313 6385 6384 
4 6313 6314 6386 6385 
4 6314 6315 6387 6386 
4 6315 6316 6388 6387 
4 6316 6317 6389 6388 
4 6317 6318 6390 6389 
4 6318 6321 6391 6390 
4 6321 6393 6392 6391 
4 6321 6320 6394 6393 
4 6320 6319 6395 6394 
4 6319 6261 6262 6395 
4 6247 6248 6396 6334 
4 6248 6249 6397 6396 
4 6249 6250 6398 6397 
4 6250 6251 6399 6398 
4 6251 6252 6400 6399 
4 6253 6254 6400 6252 
4 6254 6255 6401 6400 
4 6255 6256 6402 6401 
4 6256 6257 6350 6402 
4 6217 6218 6403 6216 
4 6218 6219 6404 6403 
4 6219 6220 6405 6404 
4 6220 6221 6406 6405 
4 6222 6223 6408 6407 
4 6223 6410 6409 6408 
4 6223 5897 5898 6410 
4 6221 6222 6407 6411 
4 6406 6221 6411 6412 
4 6224 6225 6413 6338 
4 6225 6415 6414 6413 
4 6225 6226 6461 6415 
4 6226 6227 6533 6461 
4 6227 6228 6416 6533 
4 6228 6229 6417 6416 
4 6229 6230 6418 6417 
4 6230 6231 6419 6418 
4 6231 6232 6420 6419 
4 6232 6233 6421 6420 
4 6233 6234 6422 6421 
4 6234 6235 6423 6422 
4 6235 6236 6424 6423 
4 6236 6237 6425 6424 
4 6237 6238 6426 6425 
4 6238 6239 6427 6426 
4 6239 6240 6428 6427 
4 6240 6241 6429 6428 
4 6241 6242 6430 6429 
4 6242 6243 6431 6430 
4 6243 6244 6432 6431 
4 6245 6246 6434 6433 
4 6246 6207 6208 6434 
4 6244 6245 6433 6435 
4 6432 6244 6435 6436 
4 6349 6322 6437 6348 
4 6322 6323 6438 6437 
4 6323 6324 6439 6438 
4 6324 6325 6440 6439 
4 6325 6326 6441 6440 
4 6326 6327 6442 6441 
4 6327 6328 6443 6442 
4 6328 6329 6444 6443 
4 6329 6330 6445 6444 
4 6330 6447 6446 6445 
4 6330 6331 6448 6447 
4 6331 6332 6449 6448 
4 6332 6333 6450 6449 
4 6333 6334 6396 6450 
4 6275 6336 6451 6274 
4 6395 6262 6452 6394 
4 6262 6263 6453 6452 
4 6263 6264 6454 6453 
4 6265 6266 6456 6455 
4 6266 6267 6457 6456 
4 6267 6268 6458 6457 
4 6268 6269 6459 6458 
4 6269 6270 6460 6459 
4 6270 6271 6461 6460 
4 6271 6272 6415 6461 
4 6272 6273 6414 6415 
4 6273 6274 6451 6414 
4 6264 6265 6455 6462 
4 6454 6264 6462 6463 
4 6193 6194 6464 6339 
4 6194 6195 6465 6464 
4 6195 6196 6466 6465 
4 6196 6197 6340 6466 
4 6216 6403 6590 6591 
4 6403 6404 6589 6590 
4 6404 6405 6467 6589 
4 6405 6406 6468 6467 
4 6406 6412 6587 6468 
4 6412 6469 6586 6587 
4 6412 6411 6470 6469 
4 6411 6407 6471 6470 
4 6407 6408 6472 6471 
4 6408 6409 6473 6472 
4 6409 6339 6474 6473 
4 6339 6464 6475 6474 
4 6464 6465 6476 6475 
4 6466 6340 6341 6477 
4 6465 6466 6477 6478 
4 6476 6465 6478 6479 
4 6350 6351 6480 6402 
4 6351 6352 6481 6480 
4 6352 6353 6482 6481 
4 6353 6354 6483 6482 
4 6354 6355 6484 6483 
4 6355 6356 6485 6484 
4 6356 6357 6486 6485 
4 6357 6358 6487 6486 
4 6358 6359 6488 6487 
4 6359 6360 6489 6488 
4 6360 6361 6490 6489 
4 6361 6362 6491 6490 
4 6362 6363 6492 6491 
4 6363 6364 6493 6492 
4 6364 6365 6494 6493 
4 6365 6366 6495 6494 
4 6366 6367 6496 6495 
4 6367 6368 6497 6496 
4 6368 6369 6498 6497 
4 6369 6370 6499 6498 
4 6370 6371 6500 6499 
4 6371 6372 6501 6500 
4 6372 6373 6502 6501 
4 6373 6374 6503 6502 
4 6374 6375 6504 6503 
4 6375 6376 6588 6504 
4 6376 6377 6378 6588 
4 6422 6423 6539 6421 
4 6423 6424 6505 6539 
4 6424 6425 6506 6505 
4 6425 6426 6507 6506 
4 6426 6427 6508 6507 
4 6428 6429 6508 6427 
4 6429 6430 6509 6508 
4 6430 6431 6510 6509 
4 6431 6432 6511 6510 
4 6432 6436 6512 6511 
4 6436 6598 6599 6512 
4 6436 6435 6513 6598 
4 6435 6433 6514 6513 
4 6433 6434 6515 6514 
4 6434 6208 6516 6515 
4 6208 6209 6517 6516 
4 6209 6210 6518 6517 
4 6210 6211 6519 6518 
4 6211 6212 6592 6519 
4 6212 6213 6520 6592 
4 6213 6522 6703 6520 
4 6348 6437 6346 6347 
4 6394 6452 6523 6393 
4 6452 6453 6524 6706 
4 6453 6454 6525 6524 
4 6454 6463 6526 6525 
4 6463 6528 6527 6526 
4 6463 6462 6633 6528 
4 6462 6455 6529 6633 
4 6457 6458 6530 6529 
4 6458 6459 6531 6530 
4 6459 6460 6532 6531 
4 6460 6461 6533 6532 
4 6533 6416 6534 6532 
4 6416 6417 6635 6534 
4 6418 6419 6535 6634 
4 6419 6420 6540 6535 
4 6420 6421 6539 6540 
4 6706 6524 6563 6536 
4 6524 6525 6564 6563 
4 6525 6526 6537 6564 
4 6526 6527 6538 6537 
4 6527 6540 6539 6538 
4 6539 6505 6541 6538 
4 6505 6506 6542 6541 
4 6506 6507 6543 6542 
4 6507 6508 6544 6543 
4 6508 6509 6545 6544 
4 6509 6510 6546 6545 
4 6510 6511 6547 6546 
4 6511 6512 6705 6547 
4 6512 6599 6523 6705 
4 6437 6438 6345 6346 
4 6438 6439 6344 6345 
4 6439 6440 6548 6344 
4 6440 6441 6549 6548 
4 6441 6442 6550 6549 
4 6442 6443 6707 6550 
4 6445 6446 6552 6708 
4 6446 6554 6553 6552 
4 6446 6447 6555 6554 
4 6447 6448 6556 6555 
4 6448 6449 6557 6556 
4 6449 6450 6558 6557 
4 6450 6396 6397 6558 
4 6538 6541 6559 6537 
4 6541 6542 6560 6559 
4 6542 6543 6561 6560 
4 6543 6544 6562 6561 
4 6545 6546 6562 6544 
4 6537 6559 6560 6564 
4 6560 6561 6563 6564 
4 6561 6562 6536 6563 
4 6397 6398 6565 6558 
4 6398 6399 6566 6565 
4 6399 6400 6567 6566 
4 6400 6401 6568 6567 
4 6401 6402 6480 6568 
4 6546 6547 6536 6562 
4 6480 6481 6569 6568 
4 6481 6482 6713 6569 
4 6483 6484 6664 6570 
4 6484 6485 6663 6664 
4 6485 6486 6662 6663 
4 6486 6487 6571 6662 
4 6487 6488 6572 6571 
4 6488 6489 6573 6572 
4 6489 6490 6574 6573 
4 6490 6491 6575 6574 
4 6491 6492 6576 6575 
4 6492 6493 6577 6576 
4 6493 6494 6578 6577 
4 6494 6495 6579 6578 
4 6495 6496 6580 6579 
4 6496 6497 6581 6580 
4 6497 6498 6582 6581 
4 6498 6499 6583 6582 
4 6499 6500 6584 6583 
4 6500 6501 6585 6584 
4 6501 6502 6586 6585 
4 6502 6503 6587 6586 
4 6503 6504 6468 6587 
4 6504 6588 6467 6468 
4 6378 6379 6467 6588 
4 6379 6380 6589 6467 
4 6380 6381 6590 6589 
4 6381 6382 6591 6590 
4 6382 6522 6213 6214 
4 6214 6215 6591 6382 
4 6704 6383 6592 6520 
4 6383 6384 6519 6592 
4 6384 6385 6632 6519 
4 6385 6386 6593 6632 
4 6387 6388 6593 6386 
4 6388 6389 6594 6593 
4 6389 6390 6710 6594 
4 6390 6391 6596 6710 
4 6391 6392 6597 6596 
4 6392 6599 6598 6597 
4 6392 6393 6523 6599 
4 6586 6469 6600 6585 
4 6469 6470 6601 6600 
4 6470 6471 6602 6601 
4 6471 6472 6603 6602 
4 6472 6473 6604 6603 
4 6473 6474 6605 6604 
4 6474 6475 6606 6605 
4 6475 6476 6607 6606 
4 6476 6479 6608 6607 
4 6479 6478 6609 6608 
4 6478 6477 6610 6609 
4 6585 6600 6611 6584 
4 6600 6601 6612 6611 
4 6601 6602 6613 6612 
4 6602 6603 6614 6613 
4 6603 6604 6615 6614 
4 6604 6605 6616 6615 
4 6605 6606 6617 6616 
4 6606 6607 6618 6617 
4 6607 6608 6619 6618 
4 6608 6609 6620 6619 
4 6609 6610 6621 6620 
4 6342 6343 6623 6622 
4 6343 6344 6548 6623 
4 6598 6513 6626 6597 
4 6513 6514 6627 6626 
4 6514 6515 6628 6627 
4 6515 6516 6629 6628 
4 6516 6517 6630 6629 
4 6517 6518 6631 6630 
4 6518 6519 6632 6631 
4 6527 6528 6535 6540 
4 6529 6530 6634 6633 
4 6530 6531 6635 6634 
4 6531 6532 6534 6635 
4 6417 6418 6634 6635 
4 6548 6549 6636 6623 
4 6549 6550 6637 6636 
4 6550 6707 6638 6637 
4 6708 6552 6639 6638 
4 6552 6553 6640 6639 
4 6553 6642 6641 6640 
4 6553 6554 6643 6642 
4 6554 6555 6644 6643 
4 6555 6556 6645 6644 
4 6556 6557 6646 6645 
4 6557 6558 6565 6646 
4 6565 6566 6647 6646 
4 6566 6567 6714 6647 
4 6567 6568 6569 6714 
4 6482 6483 6570 6713 
4 6584 6611 6612 6583 
4 6612 6613 6582 6583 
4 6597 6626 6709 6596 
4 6626 6627 6652 6709 
4 6627 6628 6649 6652 
4 6629 6630 6649 6628 
4 6630 6631 6650 6649 
4 6631 6632 6593 6650 
4 6613 6614 6581 6582 
4 6593 6594 6651 6650 
4 6614 6615 6580 6581 
4 6615 6616 6670 6580 
4 6616 6617 6669 6670 
4 6617 6618 6668 6669 
4 6618 6619 6672 6668 
4 6619 6620 6675 6672 
4 6620 6621 6653 6675 
4 6621 6625 6654 6653 
4 6625 6624 6655 6654 
4 6624 6622 6656 6655 
4 6622 6623 6636 6656 
4 6636 6637 6657 6656 
4 6637 6638 6639 6657 
4 6639 6640 6671 6657 
4 6640 6641 6658 6671 
4 6641 6660 6659 6658 
4 6641 6642 6661 6660 
4 6642 6643 6662 6661 
4 6643 6644 6663 6662 
4 6644 6645 6664 6663 
4 6662 6571 6572 6661 
4 6572 6573 6660 6661 
4 6646 6647 6665 6645 
4 6664 6645 6665 6570 
4 6573 6574 6659 6660 
4 6574 6575 6666 6659 
4 6575 6576 6667 6666 
4 6577 6578 6668 6672 
4 6578 6579 6669 6668 
4 6579 6580 6670 6669 
4 6656 6657 6671 6655 
4 6667 6576 6577 6672 
4 6659 6666 6673 6658 
4 6666 6667 6674 6673 
4 6667 6672 6675 6674 
4 6650 6651 6652 6649 
4 6658 6673 6676 6671 
4 6675 6653 6677 6674 
4 6655 6671 6676 6654 
4 6677 6653 6654 6676 
4 6676 6673 6674 6677 
4 2343 2344 2542 6678 
4 6678 2542 2336 2337 
4 2342 2343 6678 2337 
4 3165 6679 2710 6680 
4 6679 2506 2507 2710 
4 2710 2507 2508 6680 
4 2901 3069 3148 3149 
4 2901 3149 3068 2900 
4 3085 3086 3594 6681 
4 3594 3593 3592 6681 
4 3084 6682 2914 2915 
4 6681 6682 3084 3085 
4 3401 6683 3328 6684 
4 6683 2999 3000 3328 
4 3328 3000 3001 6684 
4 4174 6685 3943 6686 
4 6685 3704 3705 3943 
4 3943 3705 3706 6686 
4 3957 4518 4517 4516 
4 3957 4516 4264 4265 
4 3620 3621 4307 4308 
4 3621 3622 3623 4307 
4 4030 4031 6687 4313 
4 4387 6687 4314 6688 
4 6687 4031 4032 4314 
4 4314 4032 4033 6688 
4 4585 4436 4586 5205 
4 4587 4437 4588 5208 
4 4661 4662 4830 4829 
4 4662 4663 4831 4830 
4 4663 4664 4665 4831 
4 5523 5522 5204 6689 
4 6689 5204 4584 4585 
4 5205 5523 6689 4585 
4 5252 5262 4548 4549 
4 4549 4550 5251 5252 
4 5576 6690 5313 6691 
4 6690 5026 5027 5313 
4 5313 5027 5028 6691 
4 5165 5581 6692 5391 
4 5581 5580 6693 6692 
4 6692 6693 6695 6694 
4 5391 6692 6694 5577 
4 5577 6694 5311 5312 
4 6694 6695 5607 5311 
4 4977 4978 5411 5410 
4 4978 4979 5412 5411 
4 4979 4980 4981 5412 
4 5240 5241 5491 5490 
4 5241 5242 5492 5491 
4 5242 5243 5244 5492 
4 5858 6696 5609 6697 
4 6696 5352 5353 5609 
4 5609 5353 5354 6697 
4 6215 6698 5888 6699 
4 6698 5657 5658 5888 
4 5888 5658 5659 6699 
4 6125 6700 5974 6701 
4 6700 5866 5867 5974 
4 5974 5867 5868 6701 
4 6109 6110 6145 6146 
4 6146 6107 6108 6109 
4 6451 6336 6337 6702 
4 6702 6337 6338 6413 
4 6414 6451 6702 6413 
4 6520 6703 6521 6704 
4 6703 6308 6309 6521 
4 6521 6309 6310 6704 
4 6529 6455 6456 6457 
4 6633 6634 6535 6528 
4 6536 6547 6705 6706 
4 6706 6705 6523 6452 
4 6638 6707 6551 6708 
4 6707 6443 6444 6551 
4 6551 6444 6445 6708 
4 6596 6709 6595 6710 
4 6709 6652 6651 6595 
4 6595 6651 6594 6710 
4 6610 6711 6625 6621 
4 6711 6712 6624 6625 
4 6712 6342 6622 6624 
4 6711 6610 6477 6341 
4 6712 6711 6341 6200 
4 6342 6712 6200 6201 
4 6569 6713 6648 6714 
4 6713 6570 6665 6648 
4 6648 6665 6647 6714 
4 3744 4519 4518 3957 
4 4827 4828 4839 4826 
4 5039 4840 5040 5219 
4 3609 3610 3624 6715 
4 6715 3624 3623 3622 
4 3608 3609 6715 3622 
4 3044 3045 3745 3958 
4 3044 3958 4519 3744 
4 5220 5468 6717 6716 
4 6716 6718 5219 5040 
4 5041 5220 6716 5040 
4 6716 6717 5467 6718 
4 6717 5651 5650 5467 
4 5467 5650 5466 6718 
4 1806 2310 2005 1805 
4 6878 49 70 6879 
4 6877 6878 6879 6880 
4 6876 6877 6880 6881 
4 6875 6876 6881 6882 
4 6874 6875 6882 6883 
4 6873 6874 6883 6884 
4 6872 6873 6884 6885 
4 6871 6872 6885 6886 
4 6870 6871 6886 6887 
4 6869 6870 6887 6888 
4 6868 6869 6888 6889 
4 6867 6868 6889 6890 
4 6866 6867 6890 6865 
4 6864 6865 6890 7083 
4 6863 6864 7083 6891 
4 6862 6863 6891 6892 
4 6894 6862 6892 6893 
4 6861 6862 6894 6895 
4 6860 6861 6895 6896 
4 6859 6860 6896 6897 
4 6858 6859 6897 6898 
4 6857 6858 6898 6899 
4 6856 6857 6899 6900 
4 6855 6856 6900 6901 
4 6854 6855 6901 6902 
4 6853 6854 6902 6903 
4 6852 6853 6903 6904 
4 6851 6852 6904 6905 
4 6850 6851 6905 6906 
4 6849 6850 6906 6907 
4 6848 6849 6907 6908 
4 6847 6848 6908 6909 
4 6846 6847 6909 6910 
4 6845 6846 6910 6911 
4 6844 6845 6911 6912 
4 6843 6844 6912 6913 
4 6842 6843 6913 6914 
4 6841 6842 6914 6915 
4 6840 6841 6915 6916 
4 6839 6840 6916 6917 
4 6838 6839 6917 6918 
4 6837 6838 6918 6919 
4 6836 6837 6919 6920 
4 6835 6836 6920 6921 
4 6834 6835 6921 6922 
4 6833 6834 6922 6923 
4 6832 6833 6923 6924 
4 6831 6832 6924 6925 
4 6830 6831 6925 6926 
4 6829 6830 6926 6927 
4 6828 6829 6927 6928 
4 6827 6828 6928 6929 
4 6826 6827 6929 6930 
4 6825 6826 6930 6931 
4 6824 6825 6931 6932 
4 6823 6824 6932 6933 
4 6822 6823 6933 6934 
4 6821 6822 6934 6935 
4 6937 6821 6935 6936 
4 6820 6821 6937 6938 
4 50 0 6783 6939 
4 51 50 6939 7037 
4 52 51 7037 7198 
4 53 52 7198 6940 
4 54 53 6940 6941 
4 55 54 6941 6942 
4 56 55 6942 6943 
4 57 56 6943 6944 
4 58 57 6944 6945 
4 59 58 6945 6946 
4 60 59 6946 6947 
4 61 60 6947 6948 
4 62 61 6948 6949 
4 63 62 6949 6950 
4 64 63 6950 6951 
4 65 64 6951 6952 
4 66 65 6952 6953 
4 67 66 6953 6954 
4 68 67 6954 6955 
4 69 68 6955 6956 
4 70 69 6956 6879 
4 1850 1650 6784 6957 
4 1849 1850 6957 6958 
4 1848 1849 6958 6959 
4 1847 1848 6959 6960 
4 1846 1847 6960 6961 
4 1845 1846 6961 6962 
4 1844 1845 6962 6963 
4 1843 1844 6963 6964 
4 1842 1843 6964 6965 
4 1841 1842 6965 6966 
4 1840 1841 6966 6967 
4 1839 1840 6967 6968 
4 1838 1839 6968 6969 
4 1837 1838 6969 6970 
4 1836 1837 6970 6971 
4 1835 1836 6971 6972 
4 1834 1835 6972 7138 
4 1833 1834 7138 6973 
4 1832 1833 6973 6974 
4 1520 1832 6974 6719 
4 6720 6719 6974 6975 
4 6721 6720 6975 6976 
4 6722 6721 6976 6977 
4 6723 6722 6977 6978 
4 6724 6723 6978 6979 
4 6725 6724 6979 6980 
4 6726 6725 6980 6981 
4 6727 6726 6981 6982 
4 6728 6727 6982 6983 
4 6729 6728 6983 6984 
4 6730 6729 6984 6985 
4 6731 6730 6985 6986 
4 6732 6731 6986 6987 
4 6733 6732 6987 6988 
4 6734 6733 6988 6989 
4 6735 6734 6989 6990 
4 6736 6735 6990 6991 
4 6737 6736 6991 6992 
4 6738 6737 6992 6993 
4 6739 6738 6993 6994 
4 6740 6739 6994 6995 
4 6741 6740 6995 6996 
4 6742 6741 6996 6997 
4 6743 6742 6997 6998 
4 6744 6743 6998 6999 
4 6745 6744 6999 7000 
4 6746 6745 7000 7001 
4 6747 6746 7001 7002 
4 6748 6747 7002 7003 
4 6749 6748 7003 7004 
4 6750 6749 7004 7005 
4 6751 6750 7005 7006 
4 6752 6751 7006 7007 
4 6753 6752 7007 7008 
4 6754 6753 7008 7009 
4 6755 6754 7009 7010 
4 6756 6755 7010 7011 
4 6757 6756 7011 7012 
4 6758 6757 7012 7013 
4 6759 6758 7013 7014 
4 6760 6759 7014 7015 
4 6761 6760 7015 7016 
4 6762 6761 7016 7017 
4 6763 6762 7017 7018 
4 6764 6763 7018 7019 
4 6765 6764 7019 7020 
4 6766 6765 7020 7021 
4 6767 6766 7021 7022 
4 6768 6767 7022 7023 
4 6769 6768 7023 7024 
4 6770 6769 7024 7025 
4 6771 6770 7025 7026 
4 6772 6771 7026 7027 
4 6773 6772 7027 7028 
4 6774 6773 7028 7029 
4 6775 6774 7029 7030 
4 6776 6775 7030 7031 
4 6777 6776 7031 7032 
4 6778 6777 7032 7033 
4 6779 6778 7033 7034 
4 6780 6779 7034 7035 
4 6781 6780 7035 7036 
4 6782 6781 7036 7037 
4 6783 6782 7037 6939 
4 6819 6820 6938 7038 
4 6818 6819 7038 7039 
4 6817 6818 7039 7040 
4 6816 6817 7040 7041 
4 6815 6816 7041 7042 
4 6814 6815 7042 7043 
4 6813 6814 7043 7044 
4 6812 6813 7044 7045 
4 6811 6812 7045 7046 
4 6810 6811 7046 7047 
4 6809 6810 7047 7048 
4 6808 6809 7048 7049 
4 6807 6808 7049 7050 
4 6806 6807 7050 7051 
4 6805 6806 7051 7052 
4 6804 6805 7052 7053 
4 6803 6804 7053 7054 
4 6802 6803 7054 7055 
4 6801 6802 7055 7056 
4 6800 6801 7056 7057 
4 6799 6800 7057 7058 
4 6798 6799 7058 7059 
4 6797 6798 7059 7060 
4 6796 6797 7060 7061 
4 6795 6796 7061 7062 
4 6794 6795 7062 7063 
4 6793 6794 7063 7064 
4 6792 6793 7064 7065 
4 6791 6792 7065 7066 
4 6790 6791 7066 7067 
4 6789 6790 7067 7068 
4 6788 6789 7068 7069 
4 6787 6788 7069 7070 
4 6786 6787 7070 7071 
4 6785 6786 7071 7072 
4 6784 6785 7072 6957 
4 6880 6879 6956 7073 
4 6881 6880 7073 7074 
4 6882 6881 7074 7075 
4 6883 6882 7075 7076 
4 6885 6884 7077 7078 
4 6886 6885 7078 7079 
4 6887 6886 7079 7080 
4 6888 6887 7080 7081 
4 6889 6888 7081 7082 
4 6890 6889 7082 7083 
4 6884 6883 7084 7077 
4 6883 7076 7085 7084 
4 6891 7083 7082 7086 
4 6892 6891 7086 7087 
4 6893 6892 7087 7088 
4 7090 6893 7088 7089 
4 6894 6893 7090 7091 
4 6895 6894 7091 7092 
4 6896 6895 7092 7093 
4 6897 6896 7093 7094 
4 6898 6897 7094 7095 
4 6899 6898 7095 7096 
4 6900 6899 7096 7097 
4 6901 6900 7097 7098 
4 6902 6901 7098 7099 
4 6903 6902 7099 7100 
4 6904 6903 7100 7101 
4 6905 6904 7101 7102 
4 6906 6905 7102 7103 
4 6908 6907 6906 7103 
4 6909 6908 7103 7104 
4 6910 6909 7104 7105 
4 6911 6910 7105 7106 
4 6912 6911 7106 7107 
4 6913 6912 7107 7108 
4 6914 6913 7108 7109 
4 6915 6914 7109 7110 
4 6916 6915 7110 7111 
4 6917 6916 7111 7112 
4 6918 6917 7112 7113 
4 6919 6918 7113 7114 
4 6920 6919 7114 7115 
4 6921 6920 7115 7116 
4 6922 6921 7116 7117 
4 6923 6922 7117 7118 
4 6924 6923 7118 7119 
4 6926 6925 6924 7119 
4 6927 6926 7119 7120 
4 6928 6927 7120 7121 
4 6929 6928 7121 7122 
4 6930 6929 7122 7123 
4 6931 6930 7123 7124 
4 6932 6931 7124 7125 
4 6933 6932 7125 7126 
4 6934 6933 7126 7127 
4 6935 6934 7127 7128 
4 6936 6935 7128 7129 
4 7131 6936 7129 7130 
4 6937 6936 7131 7132 
4 6938 6937 7132 7133 
4 7038 6938 7133 7134 
4 7039 7038 7134 7135 
4 7040 7039 7135 7136 
4 7041 7040 7136 7137 
4 7042 7041 7137 7043 
4 6975 6974 6973 7138 
4 6976 6975 7138 6972 
4 6977 6976 6972 7271 
4 6978 6977 7271 7139 
4 6979 6978 7139 7140 
4 6980 6979 7140 7141 
4 6981 6980 7141 7142 
4 6982 6981 7142 7143 
4 6983 6982 7143 7144 
4 6984 6983 7144 7145 
4 6985 6984 7145 7146 
4 6986 6985 7146 7147 
4 6987 6986 7147 7148 
4 6988 6987 7148 7149 
4 6989 6988 7149 7150 
4 6990 6989 7150 7151 
4 6991 6990 7151 7152 
4 6992 6991 7152 7153 
4 6993 6992 7153 7154 
4 6994 6993 7154 7155 
4 6995 6994 7155 7156 
4 6996 6995 7156 7157 
4 6997 6996 7157 7158 
4 6998 6997 7158 7159 
4 6999 6998 7159 7160 
4 7000 6999 7160 7161 
4 7001 7000 7161 7162 
4 7002 7001 7162 7163 
4 7003 7002 7163 7164 
4 7005 7004 7165 7166 
4 7006 7005 7166 7167 
4 7007 7006 7167 7168 
4 7008 7007 7168 7169 
4 7009 7008 7169 7170 
4 7010 7009 7170 7171 
4 7011 7010 7171 7172 
4 7012 7011 7172 7173 
4 7013 7012 7173 7174 
4 7014 7013 7174 7175 
4 7015 7014 7175 7176 
4 7016 7015 7176 7177 
4 7017 7016 7177 7178 
4 7018 7017 7178 7179 
4 7019 7018 7179 7180 
4 7020 7019 7180 7181 
4 7021 7020 7181 7182 
4 7022 7021 7182 7183 
4 7023 7022 7183 7184 
4 7024 7023 7184 7185 
4 7025 7024 7185 7186 
4 7026 7025 7186 7187 
4 7027 7026 7187 7188 
4 7028 7027 7188 7189 
4 7029 7028 7189 7190 
4 7030 7029 7190 7191 
4 7031 7030 7191 7192 
4 7032 7031 7192 7193 
4 7033 7032 7193 7194 
4 7034 7033 7194 7195 
4 7035 7034 7195 7196 
4 7036 7035 7196 7197 
4 7037 7036 7197 7198 
4 7004 7003 7199 7165 
4 7003 7164 7200 7199 
4 7044 7043 7137 7201 
4 7045 7044 7201 7202 
4 7046 7045 7202 7203 
4 7047 7046 7203 7204 
4 7048 7047 7204 7205 
4 7049 7048 7205 7206 
4 7050 7049 7206 7207 
4 7051 7050 7207 7208 
4 7052 7051 7208 7209 
4 7053 7052 7209 7210 
4 7054 7053 7210 7211 
4 7055 7054 7211 7212 
4 7056 7055 7212 7213 
4 7057 7056 7213 7214 
4 7058 7057 7214 7215 
4 7059 7058 7215 7216 
4 7060 7059 7216 7217 
4 7061 7060 7217 7218 
4 7062 7061 7218 7219 
4 7063 7062 7219 7220 
4 7064 7063 7220 7221 
4 7065 7064 7221 7222 
4 7066 7065 7222 7223 
4 7067 7066 7223 7224 
4 7068 7067 7224 7225 
4 7069 7068 7225 7226 
4 7070 7069 7226 7227 
4 7071 7070 7227 7228 
4 7072 7071 7228 7229 
4 6957 7072 7229 6958 
4 7201 7137 7136 7135 
4 7202 7201 7135 7338 
4 7203 7202 7338 7230 
4 7204 7203 7230 7231 
4 7205 7204 7231 7232 
4 7206 7205 7232 7233 
4 7207 7206 7233 7234 
4 7208 7207 7234 7235 
4 7209 7208 7235 7236 
4 7210 7209 7236 7237 
4 7211 7210 7237 7238 
4 7212 7211 7238 7239 
4 7213 7212 7239 7240 
4 7214 7213 7240 7241 
4 7215 7214 7241 7242 
4 7216 7215 7242 7243 
4 7217 7216 7243 7244 
4 7218 7217 7244 7245 
4 7219 7218 7245 7246 
4 7220 7219 7246 7247 
4 7221 7220 7247 7248 
4 7222 7221 7248 7249 
4 7223 7222 7249 7250 
4 7224 7223 7250 7251 
4 7225 7224 7251 7252 
4 7226 7225 7252 7253 
4 7227 7226 7253 7254 
4 7228 7227 7254 7255 
4 7229 7228 7255 7256 
4 6958 7229 7256 7257 
4 6959 6958 7257 7258 
4 6960 6959 7258 7259 
4 6961 6960 7259 7260 
4 6962 6961 7260 7261 
4 6963 6962 7261 7262 
4 6964 6963 7262 7263 
4 6965 6964 7263 7264 
4 6966 6965 7264 7265 
4 6967 6966 7265 7266 
4 6968 6967 7266 7267 
4 6969 6968 7267 7268 
4 6970 6969 7268 7269 
4 6971 6970 7269 7270 
4 6972 6971 7270 7271 
4 6940 7198 7197 7272 
4 6941 6940 7272 7273 
4 6942 6941 7273 7274 
4 6943 6942 7274 7275 
4 6944 6943 7275 7276 
4 6945 6944 7276 7277 
4 6946 6945 7277 7278 
4 6947 6946 7278 7279 
4 6948 6947 7279 7280 
4 6949 6948 7280 7281 
4 6950 6949 7281 7282 
4 6951 6950 7282 7283 
4 6952 6951 7283 7284 
4 6953 6952 7284 7285 
4 6954 6953 7285 7286 
4 6955 6954 7286 7287 
4 6956 6955 7287 7073 
4 7086 7082 7081 7288 
4 7087 7086 7288 7289 
4 7088 7087 7289 7290 
4 7089 7088 7290 7291 
4 7293 7089 7291 7292 
4 7090 7089 7293 7294 
4 7091 7090 7294 7295 
4 7092 7091 7295 7296 
4 7093 7092 7296 7297 
4 7094 7093 7297 7298 
4 7095 7094 7298 7299 
4 7097 7096 7300 7301 
4 7098 7097 7301 7302 
4 7099 7098 7302 7303 
4 7100 7099 7303 7304 
4 7101 7100 7304 7305 
4 7102 7101 7305 7306 
4 7103 7102 7306 7307 
4 7104 7103 7307 7308 
4 7105 7104 7308 7309 
4 7106 7105 7309 7310 
4 7108 7107 7106 7310 
4 7109 7108 7310 7488 
4 7110 7109 7488 7311 
4 7111 7110 7311 7312 
4 7112 7111 7312 7313 
4 7113 7112 7313 7314 
4 7114 7113 7314 7315 
4 7115 7114 7315 7316 
4 7116 7115 7316 7317 
4 7117 7116 7317 7318 
4 7118 7117 7318 7319 
4 7119 7118 7319 7320 
4 7120 7119 7320 7321 
4 7121 7120 7321 7322 
4 7122 7121 7322 7323 
4 7123 7122 7323 7324 
4 7124 7123 7324 7325 
4 7125 7124 7325 7326 
4 7126 7125 7326 7327 
4 7127 7126 7327 7328 
4 7128 7127 7328 7329 
4 7129 7128 7329 7330 
4 7130 7129 7330 7331 
4 7333 7130 7331 7332 
4 7131 7130 7333 7334 
4 7132 7131 7334 7335 
4 7133 7132 7335 7336 
4 7134 7133 7336 7337 
4 7135 7134 7337 7338 
4 7096 7095 7339 7300 
4 7095 7299 7340 7339 
4 7272 7197 7196 7341 
4 7273 7272 7341 7342 
4 7274 7273 7342 7343 
4 7275 7274 7343 7344 
4 7276 7275 7344 7345 
4 7277 7276 7345 7346 
4 7278 7277 7346 7347 
4 7279 7278 7347 7348 
4 7280 7279 7348 7349 
4 7281 7280 7349 7350 
4 7282 7281 7350 7351 
4 7283 7282 7351 7352 
4 7284 7283 7352 7353 
4 7285 7284 7353 7354 
4 7286 7285 7354 7355 
4 7287 7286 7355 7356 
4 7073 7287 7356 7357 
4 7074 7073 7357 7358 
4 7075 7074 7358 7359 
4 7076 7075 7359 7360 
4 7085 7076 7360 7361 
4 7363 7085 7361 7362 
4 7084 7085 7363 7364 
4 7077 7084 7364 7365 
4 7078 7077 7365 7366 
4 7079 7078 7366 7596 
4 7080 7079 7596 7367 
4 7081 7080 7367 7288 
4 7139 7271 7270 7368 
4 7140 7139 7368 7369 
4 7141 7140 7369 7370 
4 7142 7141 7370 7371 
4 7143 7142 7371 7372 
4 7144 7143 7372 7373 
4 7145 7144 7373 7374 
4 7146 7145 7374 7375 
4 7147 7146 7375 7376 
4 7148 7147 7376 7377 
4 7149 7148 7377 7378 
4 7150 7149 7378 7379 
4 7151 7150 7379 7380 
4 7152 7151 7380 7381 
4 7153 7152 7381 7382 
4 7154 7153 7382 7383 
4 7155 7154 7383 7384 
4 7156 7155 7384 7385 
4 7157 7156 7385 7386 
4 7158 7157 7386 7387 
4 7159 7158 7387 7388 
4 7160 7159 7388 7389 
4 7161 7160 7389 7390 
4 7162 7161 7390 7391 
4 7163 7162 7391 7392 
4 7164 7163 7392 7393 
4 7200 7164 7393 7394 
4 7396 7200 7394 7395 
4 7199 7200 7396 7397 
4 7165 7199 7397 7398 
4 7166 7165 7398 7399 
4 7167 7166 7399 7400 
4 7168 7167 7400 7401 
4 7169 7168 7401 7402 
4 7170 7169 7402 7403 
4 7171 7170 7403 7404 
4 7172 7171 7404 7405 
4 7173 7172 7405 7406 
4 7174 7173 7406 7407 
4 7175 7174 7407 7408 
4 7176 7175 7408 7409 
4 7177 7176 7409 7410 
4 7178 7177 7410 7411 
4 7179 7178 7411 7412 
4 7180 7179 7412 7413 
4 7181 7180 7413 7414 
4 7182 7181 7414 7415 
4 7183 7182 7415 7416 
4 7184 7183 7416 7417 
4 7185 7184 7417 7418 
4 7186 7185 7418 7419 
4 7187 7186 7419 7420 
4 7188 7187 7420 7421 
4 7189 7188 7421 7422 
4 7190 7189 7422 7423 
4 7191 7190 7423 7424 
4 7192 7191 7424 7425 
4 7193 7192 7425 7426 
4 7194 7193 7426 7427 
4 7195 7194 7427 7342 
4 7196 7195 7342 7341 
4 7230 7338 7337 7428 
4 7231 7230 7428 7429 
4 7232 7231 7429 7430 
4 7233 7232 7430 7431 
4 7234 7233 7431 7432 
4 7235 7234 7432 7433 
4 7236 7235 7433 7434 
4 7237 7236 7434 7435 
4 7238 7237 7435 7436 
4 7239 7238 7436 7437 
4 7240 7239 7437 7438 
4 7241 7240 7438 7439 
4 7242 7241 7439 7440 
4 7243 7242 7440 7441 
4 7244 7243 7441 7442 
4 7245 7244 7442 7443 
4 7247 7246 7444 7445 
4 7248 7247 7445 7446 
4 7249 7248 7446 7447 
4 7250 7249 7447 7448 
4 7251 7250 7448 7449 
4 7252 7251 7449 7450 
4 7253 7252 7450 7451 
4 7254 7253 7451 7452 
4 7255 7254 7452 7453 
4 7256 7255 7453 7454 
4 7257 7256 7454 7455 
4 7258 7257 7455 7456 
4 7259 7258 7456 7457 
4 7260 7259 7457 7458 
4 7261 7260 7458 7459 
4 7262 7261 7459 7460 
4 7263 7262 7460 7461 
4 7264 7263 7461 7462 
4 7265 7264 7462 7463 
4 7266 7265 7463 7464 
4 7267 7266 7464 7465 
4 7268 7267 7465 7466 
4 7269 7268 7466 7467 
4 7270 7269 7467 7368 
4 7246 7245 7468 7444 
4 7245 7443 7469 7468 
4 7296 7295 7294 7470 
4 7297 7296 7470 7471 
4 7298 7297 7471 7472 
4 7299 7298 7472 7473 
4 7340 7299 7473 7474 
4 7476 7340 7474 7475 
4 7339 7340 7476 7477 
4 7300 7339 7477 7478 
4 7301 7300 7478 7479 
4 7302 7301 7479 7480 
4 7303 7302 7480 7481 
4 7304 7303 7481 7482 
4 7305 7304 7482 7483 
4 7306 7305 7483 7484 
4 7307 7306 7484 7485 
4 7308 7307 7485 7486 
4 7310 7309 7487 7488 
4 7309 7308 7486 7487 
4 7470 7294 7293 7489 
4 7473 7472 7490 7491 
4 7474 7473 7491 7492 
4 7475 7474 7492 7493 
4 7495 7475 7493 7494 
4 7476 7475 7495 7496 
4 7477 7476 7496 7497 
4 7478 7477 7497 7498 
4 7479 7478 7498 7499 
4 7480 7479 7499 7500 
4 7481 7480 7500 7501 
4 7482 7481 7501 7502 
4 7483 7482 7502 7503 
4 7484 7483 7503 7504 
4 7485 7484 7504 7505 
4 7486 7485 7505 7506 
4 7487 7486 7506 7507 
4 7488 7487 7507 7508 
4 7311 7488 7508 7509 
4 7312 7311 7509 7510 
4 7313 7312 7510 7511 
4 7314 7313 7511 7512 
4 7315 7314 7512 7513 
4 7316 7315 7513 7514 
4 7317 7316 7514 7515 
4 7319 7318 7317 7515 
4 7320 7319 7515 7516 
4 7321 7320 7516 7517 
4 7322 7321 7517 7518 
4 7323 7322 7518 7519 
4 7324 7323 7519 7520 
4 7325 7324 7520 7521 
4 7326 7325 7521 7522 
4 7327 7326 7522 7523 
4 7328 7327 7523 7524 
4 7329 7328 7524 7525 
4 7330 7329 7525 7526 
4 7331 7330 7526 7527 
4 7332 7331 7527 7528 
4 7530 7332 7528 7529 
4 7333 7332 7530 7531 
4 7334 7333 7531 7532 
4 7335 7334 7532 7533 
4 7336 7335 7533 7534 
4 7337 7336 7534 7428 
4 7472 7471 7535 7490 
4 7369 7368 7467 7537 
4 7370 7369 7537 7662 
4 7371 7370 7662 7661 
4 7372 7371 7661 7538 
4 7373 7372 7538 7539 
4 7374 7373 7539 7540 
4 7375 7374 7540 7541 
4 7376 7375 7541 7542 
4 7377 7376 7542 7543 
4 7378 7377 7543 7544 
4 7379 7378 7544 7545 
4 7380 7379 7545 7546 
4 7382 7381 7547 7548 
4 7383 7382 7548 7549 
4 7384 7383 7549 7550 
4 7385 7384 7550 7551 
4 7386 7385 7551 7552 
4 7387 7386 7552 7553 
4 7388 7387 7553 7554 
4 7389 7388 7554 7555 
4 7390 7389 7555 7556 
4 7391 7390 7556 7557 
4 7392 7391 7557 7558 
4 7393 7392 7558 7559 
4 7394 7393 7559 7560 
4 7395 7394 7560 7561 
4 7563 7395 7561 7562 
4 7396 7395 7563 7564 
4 7397 7396 7564 7565 
4 7398 7397 7565 7566 
4 7399 7398 7566 7567 
4 7400 7399 7567 7568 
4 7401 7400 7568 7569 
4 7402 7401 7569 7570 
4 7403 7402 7570 7571 
4 7404 7403 7571 7572 
4 7405 7404 7572 7573 
4 7406 7405 7573 7574 
4 7407 7406 7574 7575 
4 7408 7407 7575 7576 
4 7409 7408 7576 7577 
4 7410 7409 7577 7578 
4 7411 7410 7578 7579 
4 7412 7411 7579 7580 
4 7413 7412 7580 7581 
4 7414 7413 7581 7582 
4 7415 7414 7582 7583 
4 7416 7415 7583 7584 
4 7417 7416 7584 7585 
4 7418 7417 7585 7586 
4 7419 7418 7586 7587 
4 7420 7419 7587 7588 
4 7421 7420 7588 7589 
4 7422 7421 7589 7590 
4 7423 7422 7590 7591 
4 7424 7423 7591 7592 
4 7425 7424 7592 7593 
4 7426 7425 7593 7594 
4 7427 7426 7594 7595 
4 7342 7427 7595 7343 
4 7289 7288 7367 7596 
4 7290 7289 7596 7366 
4 7291 7290 7366 7624 
4 7292 7291 7624 7597 
4 7599 7292 7597 7598 
4 7293 7292 7599 7489 
4 7344 7343 7595 7600 
4 7345 7344 7600 7601 
4 7346 7345 7601 7602 
4 7347 7346 7602 7603 
4 7348 7347 7603 7604 
4 7349 7348 7604 7605 
4 7350 7349 7605 7606 
4 7351 7350 7606 7607 
4 7352 7351 7607 7608 
4 7353 7352 7608 7609 
4 7354 7353 7609 7610 
4 7355 7354 7610 7611 
4 7356 7355 7611 7612 
4 7357 7356 7612 7613 
4 7358 7357 7613 7614 
4 7359 7358 7614 7615 
4 7360 7359 7615 7616 
4 7361 7360 7616 7617 
4 7362 7361 7617 7618 
4 7620 7362 7618 7619 
4 7363 7362 7620 7621 
4 7364 7363 7621 7622 
4 7365 7364 7622 7623 
4 7366 7365 7623 7624 
4 7429 7428 7534 7625 
4 7430 7429 7625 7626 
4 7431 7430 7626 7627 
4 7432 7431 7627 7628 
4 7434 7433 7432 7628 
4 7435 7434 7628 7629 
4 7436 7435 7629 7630 
4 7437 7436 7630 7631 
4 7438 7437 7631 7632 
4 7439 7438 7632 7633 
4 7440 7439 7633 7634 
4 7441 7440 7634 7635 
4 7442 7441 7635 7636 
4 7443 7442 7636 7637 
4 7469 7443 7637 7638 
4 7640 7469 7638 7639 
4 7468 7469 7640 7641 
4 7444 7468 7641 7850 
4 7445 7444 7850 7899 
4 7446 7445 7899 7642 
4 7447 7446 7642 7643 
4 7448 7447 7643 7644 
4 7449 7448 7644 7645 
4 7450 7449 7645 7646 
4 7451 7450 7646 7647 
4 7452 7451 7647 7648 
4 7453 7452 7648 7649 
4 7454 7453 7649 7650 
4 7455 7454 7650 7651 
4 7456 7455 7651 7652 
4 7457 7456 7652 7653 
4 7458 7457 7653 7654 
4 7459 7458 7654 7655 
4 7460 7459 7655 7656 
4 7461 7460 7656 7657 
4 7462 7461 7657 7658 
4 7463 7462 7658 7659 
4 7464 7463 7659 7660 
4 7465 7464 7660 7661 
4 7466 7465 7661 7662 
4 7381 7380 7663 7547 
4 7380 7546 7664 7663 
4 7466 7662 7537 7467 
4 7538 7661 7660 7665 
4 7539 7538 7665 7666 
4 7540 7539 7666 7667 
4 7541 7540 7667 7668 
4 7542 7541 7668 7669 
4 7543 7542 7669 7670 
4 7544 7543 7670 7671 
4 7545 7544 7671 7672 
4 7546 7545 7672 7673 
4 7664 7546 7673 7864 
4 7675 7664 7864 7674 
4 7663 7664 7675 7676 
4 7547 7663 7676 7677 
4 7548 7547 7677 7678 
4 7549 7548 7678 7679 
4 7550 7549 7679 7680 
4 7551 7550 7680 7681 
4 7552 7551 7681 7682 
4 7553 7552 7682 7683 
4 7554 7553 7683 7684 
4 7555 7554 7684 7685 
4 7556 7555 7685 7686 
4 7557 7556 7686 7687 
4 7558 7557 7687 7688 
4 7559 7558 7688 7560 
4 7561 7560 7688 7689 
4 7562 7561 7689 7690 
4 7692 7562 7690 7691 
4 7563 7562 7692 7693 
4 7564 7563 7693 7694 
4 7565 7564 7694 7695 
4 7566 7565 7695 7567 
4 7652 7651 7650 7696 
4 7653 7652 7696 7697 
4 7654 7653 7697 7698 
4 7655 7654 7698 7699 
4 7656 7655 7699 7700 
4 7657 7656 7700 7701 
4 7658 7657 7701 7702 
4 7659 7658 7702 7703 
4 7660 7659 7703 7665 
4 7526 7525 7524 7704 
4 7527 7526 7704 7705 
4 7528 7527 7705 7706 
4 7529 7528 7706 7707 
4 7709 7529 7707 7708 
4 7530 7529 7709 7710 
4 7531 7530 7710 7711 
4 7532 7531 7711 7712 
4 7533 7532 7712 7713 
4 7534 7533 7713 7625 
4 7600 7595 7594 7714 
4 7601 7600 7714 7715 
4 7602 7601 7715 7716 
4 7603 7602 7716 7717 
4 7604 7603 7717 7718 
4 7605 7604 7718 7719 
4 7606 7605 7719 7720 
4 7607 7606 7720 7721 
4 7608 7607 7721 7722 
4 7609 7608 7722 7723 
4 7610 7609 7723 7724 
4 7611 7610 7724 7725 
4 7612 7611 7725 7726 
4 7613 7612 7726 7727 
4 7614 7613 7727 7728 
4 7615 7614 7728 7729 
4 7616 7615 7729 7730 
4 7617 7616 7730 7731 
4 7618 7617 7731 7732 
4 7619 7618 7732 7733 
4 7735 7619 7733 7734 
4 7620 7619 7735 7736 
4 7597 7624 7623 7622 
4 7598 7597 7622 7621 
4 7598 7621 7620 7736 
4 8564 8563 7833 7737 
4 7536 8564 7737 7738 
4 7740 7536 7738 7739 
4 7535 7536 7740 7741 
4 7490 7535 7741 7742 
4 7491 7490 7742 7743 
4 7492 7491 7743 7744 
4 7493 7492 7744 7745 
4 7494 7493 7745 7746 
4 7748 7494 7746 7747 
4 7495 7494 7748 7749 
4 7496 7495 7749 7750 
4 7497 7496 7750 7751 
4 7498 7497 7751 7752 
4 7499 7498 7752 7753 
4 7500 7499 7753 7754 
4 7503 7502 8566 7755 
4 7504 7503 7755 7756 
4 7505 7504 7756 7757 
4 7506 7505 7757 7758 
4 7507 7506 7758 7759 
4 7508 7507 7759 7760 
4 7509 7508 7760 7761 
4 7510 7509 7761 7762 
4 7511 7510 7762 7763 
4 7512 7511 7763 7764 
4 7513 7512 7764 7765 
4 7514 7513 7765 7766 
4 7515 7514 7766 7516 
4 7568 7567 7695 7767 
4 7569 7568 7767 7768 
4 7570 7569 7768 7769 
4 7571 7570 7769 7770 
4 7572 7571 7770 7771 
4 7573 7572 7771 7772 
4 7574 7573 7772 7773 
4 7575 7574 7773 7774 
4 7576 7575 7774 7775 
4 7577 7576 7775 7776 
4 7579 7578 7777 7778 
4 7580 7579 7778 7779 
4 7581 7580 7779 7780 
4 7582 7581 7780 7781 
4 7583 7582 7781 7782 
4 7584 7583 7782 7783 
4 7585 7584 7783 7784 
4 7586 7585 7784 7785 
4 7587 7586 7785 7786 
4 7588 7587 7786 7787 
4 7589 7588 7787 7788 
4 7590 7589 7788 7789 
4 7591 7590 7789 7790 
4 7592 7591 7790 7791 
4 7593 7592 7791 7792 
4 7594 7593 7792 7714 
4 7517 7516 7766 7793 
4 7518 7517 7793 7794 
4 7519 7518 7794 7795 
4 7520 7519 7795 7796 
4 7521 7520 7796 7797 
4 7522 7521 7797 7798 
4 7523 7522 7798 7799 
4 7524 7523 7799 7800 
4 7704 7524 7800 7801 
4 7705 7704 7801 7802 
4 7706 7705 7802 7803 
4 7707 7706 7803 7804 
4 7708 7707 7804 7805 
4 7807 7708 7805 7806 
4 7709 7708 7807 7808 
4 7710 7709 7808 7809 
4 7711 7710 7809 7810 
4 7712 7711 7810 7811 
4 7713 7712 7811 7812 
4 7625 7713 7812 7626 
4 7715 7714 7792 7791 
4 7716 7715 7791 7935 
4 7717 7716 7935 7813 
4 7718 7717 7813 7814 
4 7719 7718 7814 7815 
4 7720 7719 7815 7816 
4 7721 7720 7816 7817 
4 7722 7721 7817 7818 
4 7723 7722 7818 7819 
4 7724 7723 7819 7820 
4 7725 7724 7820 7821 
4 7726 7725 7821 7822 
4 7727 7726 7822 7823 
4 7728 7727 7823 7824 
4 7729 7728 7824 7825 
4 7730 7729 7825 7826 
4 7731 7730 7826 7827 
4 7732 7731 7827 7828 
4 7733 7732 7828 7829 
4 7734 7733 7829 7830 
4 7832 7734 7830 7831 
4 7735 7734 7832 7833 
4 7627 7626 7812 7834 
4 7628 7627 7834 7835 
4 7629 7628 7835 7836 
4 7630 7629 7836 7837 
4 7631 7630 7837 7838 
4 7632 7631 7838 7839 
4 7633 7632 7839 7840 
4 7634 7633 7840 7841 
4 7635 7634 7841 7842 
4 7636 7635 7842 7843 
4 7637 7636 7843 7844 
4 7638 7637 7844 7845 
4 7639 7638 7845 7846 
4 7848 7639 7846 7847 
4 7640 7639 7848 7849 
4 7641 7640 7849 7850 
4 7666 7665 7703 7851 
4 7667 7666 7851 7852 
4 7668 7667 7852 7853 
4 7669 7668 7853 7854 
4 7670 7669 7854 7855 
4 7671 7670 7855 7856 
4 7672 7671 7856 7857 
4 7853 7852 7858 7976 
4 7854 7853 7976 7859 
4 7855 7854 7859 7860 
4 7856 7855 7860 7861 
4 7857 7856 7861 7862 
4 7864 7857 7862 7863 
4 7672 7857 7864 7673 
4 7674 7864 7863 7865 
4 7867 7674 7865 7866 
4 7675 7674 7867 7868 
4 7676 7675 7868 7869 
4 7677 7676 7869 7870 
4 7678 7677 7870 7871 
4 7679 7678 7871 7872 
4 7680 7679 7872 7873 
4 7681 7680 7873 7874 
4 7682 7681 7874 7875 
4 7683 7682 7875 7876 
4 7684 7683 7876 7877 
4 7685 7684 7877 7878 
4 7686 7685 7878 7879 
4 7687 7686 7879 7880 
4 7688 7687 7880 7881 
4 7689 7688 7881 7882 
4 7690 7689 7882 7883 
4 7691 7690 7883 7884 
4 7886 7691 7884 7885 
4 7692 7691 7886 7887 
4 7693 7692 7887 7888 
4 7694 7693 7888 7889 
4 7695 7694 7889 7767 
4 7845 7844 7843 7890 
4 7846 7845 7890 7891 
4 7847 7846 7891 7892 
4 7894 7847 7892 7893 
4 7848 7847 7894 7895 
4 7849 7848 7895 7896 
4 7850 7849 7896 7897 
4 7899 7850 7897 7898 
4 7578 7577 7900 7777 
4 7577 7776 7901 7900 
4 7642 7899 7898 7902 
4 7643 7642 7902 7903 
4 7644 7643 7903 7904 
4 7645 7644 7904 7905 
4 7646 7645 7905 7906 
4 7647 7646 7906 7907 
4 7648 7647 7907 7908 
4 7649 7648 7908 7909 
4 7650 7649 7909 7696 
4 7768 7767 7889 7910 
4 7769 7768 7910 7911 
4 7770 7769 7911 7912 
4 7771 7770 7912 7913 
4 7772 7771 7913 7914 
4 7773 7772 7914 7915 
4 7774 7773 7915 7916 
4 7775 7774 7916 7917 
4 7776 7775 7917 7918 
4 7901 7776 7918 8166 
4 7919 7901 8166 8165 
4 7900 7901 7919 7920 
4 7777 7900 7920 7921 
4 7778 7777 7921 7922 
4 7779 7778 7922 7923 
4 7780 7779 7923 7924 
4 7781 7780 7924 7925 
4 7782 7781 7925 7926 
4 7783 7782 7926 7927 
4 7784 7783 7927 7928 
4 7785 7784 7928 7929 
4 7786 7785 7929 7930 
4 7787 7786 7930 7931 
4 7788 7787 7931 7932 
4 7789 7788 7932 7933 
4 7790 7789 7933 7934 
4 7791 7790 7934 7935 
4 7793 7766 7765 7936 
4 7794 7793 7936 7937 
4 7795 7794 7937 7938 
4 7796 7795 7938 7939 
4 7797 7796 7939 7940 
4 7798 7797 7940 7941 
4 7799 7798 7941 7942 
4 7800 7799 7942 7943 
4 7801 7800 7943 7944 
4 7802 7801 7944 7945 
4 7803 7802 7945 7946 
4 7804 7803 7946 7947 
4 7805 7804 7947 7948 
4 7806 7805 7948 7949 
4 7951 7806 7949 7950 
4 7807 7806 7951 7952 
4 7808 7807 7952 7953 
4 7809 7808 7953 7954 
4 7810 7809 7954 7955 
4 7811 7810 7955 7956 
4 7812 7811 7956 7834 
4 7890 7843 7842 7957 
4 7891 7890 7957 7958 
4 7892 7891 7958 7959 
4 7893 7892 7959 7960 
4 7962 7893 7960 7961 
4 7894 7893 7962 7963 
4 7895 7894 7963 8062 
4 7896 7895 8062 8061 
4 7897 7896 8061 7964 
4 7898 7897 7964 7965 
4 7902 7898 7965 7966 
4 7903 7902 7966 7967 
4 7904 7903 7967 7968 
4 7906 7905 7904 7968 
4 7907 7906 7968 7969 
4 7908 7907 7969 7970 
4 7909 7908 7970 7971 
4 7696 7909 7971 7972 
4 7697 7696 7972 7973 
4 7698 7697 7973 7974 
4 7699 7698 7974 7975 
4 7700 7699 7975 7976 
4 7701 7700 7976 7858 
4 7745 7744 8574 7978 
4 7746 7745 7978 7979 
4 7747 7746 7979 7980 
4 7982 7747 7980 7981 
4 7748 7747 7982 7983 
4 7749 7748 7983 7984 
4 7750 7749 7984 7985 
4 7751 7750 7985 7986 
4 7752 7751 7986 7987 
4 7753 7752 7987 8219 
4 7754 7753 8219 8218 
4 7755 8566 8568 7988 
4 7756 7755 7988 7989 
4 7757 7756 7989 7990 
4 7758 7757 7990 7991 
4 7759 7758 7991 7992 
4 7760 7759 7992 7993 
4 7761 7760 7993 7994 
4 7762 7761 7994 7995 
4 7763 7762 7995 7996 
4 7764 7763 7996 7997 
4 7765 7764 7997 7936 
4 7825 7824 7998 7999 
4 7813 7935 7934 8000 
4 7814 7813 8000 8078 
4 7815 7814 8078 8204 
4 7816 7815 8204 8001 
4 7817 7816 8001 8002 
4 7818 7817 8002 8003 
4 7819 7818 8003 8004 
4 7820 7819 8004 8005 
4 7822 7821 7820 8005 
4 7999 7998 8006 8007 
4 8009 7999 8007 8008 
4 7825 7999 8009 7826 
4 7737 7833 7832 8010 
4 7738 7737 8010 8011 
4 7739 7738 8011 8012 
4 8014 7739 8012 8013 
4 7740 7739 8014 8015 
4 7871 7870 7869 8017 
4 7872 7871 8017 8016 
4 7873 7872 8016 8018 
4 7874 7873 8018 8019 
4 7875 7874 8019 8020 
4 7876 7875 8020 8021 
4 7877 7876 8021 8022 
4 7878 7877 8022 8023 
4 7879 7878 8023 8024 
4 7880 7879 8024 8025 
4 7881 7880 8025 8026 
4 7882 7881 8026 8027 
4 7883 7882 8027 8028 
4 7884 7883 8028 8029 
4 7885 7884 8029 8030 
4 8032 7885 8030 8031 
4 7886 7885 8032 8033 
4 7887 7886 8033 8034 
4 7888 7887 8034 8035 
4 7889 7888 8035 8036 
4 7910 7889 8036 8037 
4 7911 7910 8037 8038 
4 7912 7911 8038 8039 
4 7913 7912 8039 8040 
4 7914 7913 8040 8041 
4 7915 7914 8041 8042 
4 7916 7915 8042 8043 
4 7917 7916 8043 8044 
4 8045 8017 7869 7868 
4 8016 8017 8045 8046 
4 8018 8016 8046 8047 
4 8019 8018 8047 8048 
4 8020 8019 8048 8049 
4 8021 8020 8049 8050 
4 8023 8022 8051 8052 
4 8024 8023 8052 8053 
4 8025 8024 8053 8054 
4 8022 8021 8365 8051 
4 8021 8050 8366 8365 
4 8045 7868 7867 8055 
4 8046 8045 8055 8572 
4 8047 8046 8572 8056 
4 8048 8047 8056 8057 
4 8049 8048 8057 8058 
4 8050 8049 8058 8059 
4 8055 7867 7866 8060 
4 8572 8055 8060 8571 
4 7919 8165 8064 8063 
4 7920 7919 8063 8065 
4 7921 7920 8065 8066 
4 7922 7921 8066 8067 
4 7923 7922 8067 8068 
4 7924 7923 8068 8069 
4 7925 7924 8069 8070 
4 7926 7925 8070 8071 
4 7927 7926 8071 8072 
4 7928 7927 8072 8073 
4 7929 7928 8073 8074 
4 7930 7929 8074 8075 
4 7931 7930 8075 8076 
4 7932 7931 8076 8077 
4 7933 7932 8077 8078 
4 7934 7933 8078 8000 
4 7827 7826 8009 8079 
4 7828 7827 8079 8080 
4 7829 7828 8080 8081 
4 7830 7829 8081 8082 
4 7831 7830 8082 8083 
4 8085 7831 8083 8084 
4 7832 7831 8085 8010 
4 7835 7834 7956 8086 
4 7836 7835 8086 8087 
4 7837 7836 8087 8088 
4 7838 7837 8088 8089 
4 7839 7838 8089 8090 
4 7840 7839 8090 8091 
4 7841 7840 8091 8092 
4 7842 7841 8092 7957 
4 7966 7965 8094 7967 
4 7968 7967 8094 8093 
4 7969 7968 8093 8103 
4 7970 7969 8103 8132 
4 7974 7973 8095 8096 
4 7975 7974 8096 8097 
4 7976 7975 8097 7859 
4 7993 7992 7991 8098 
4 7994 7993 8098 8099 
4 7995 7994 8099 8100 
4 7996 7995 8100 8101 
4 7997 7996 8101 8102 
4 7936 7997 8102 7937 
4 7860 7859 8097 8096 
4 7861 7860 8096 8095 
4 7866 7865 8132 8103 
4 8060 7866 8103 8093 
4 7938 7937 8102 8104 
4 7939 7938 8104 8105 
4 7940 7939 8105 8106 
4 7941 7940 8106 8107 
4 7942 7941 8107 8108 
4 7943 7942 8108 8109 
4 7944 7943 8109 8110 
4 7945 7944 8110 8111 
4 7946 7945 8111 8112 
4 7947 7946 8112 8113 
4 7948 7947 8113 8114 
4 7949 7948 8114 8115 
4 7950 7949 8115 8116 
4 8118 7950 8116 8117 
4 7951 7950 8118 8119 
4 7952 7951 8119 8120 
4 7953 7952 8120 8121 
4 7954 7953 8121 8122 
4 7955 7954 8122 8123 
4 7956 7955 8123 8086 
4 8011 8010 8085 8124 
4 8012 8011 8124 8125 
4 8013 8012 8125 8126 
4 8128 8013 8126 8127 
4 8014 8013 8128 8220 
4 8015 8014 8220 8129 
4 8131 8015 8129 8130 
4 7740 8015 8131 7741 
4 7742 7741 8131 8573 
4 8573 8131 8130 8133 
4 7978 8574 8133 8134 
4 7979 7978 8134 8135 
4 7980 7979 8135 8136 
4 7981 7980 8136 8137 
4 8139 7981 8137 8138 
4 7982 7981 8139 8140 
4 7983 7982 8140 8141 
4 7984 7983 8141 8142 
4 7985 7984 8142 8143 
4 7986 7985 8143 8144 
4 8057 8056 8062 7963 
4 8058 8057 7963 7962 
4 8028 8027 8145 8146 
4 8029 8028 8146 8147 
4 8030 8029 8147 8148 
4 8031 8030 8148 8149 
4 8151 8031 8149 8150 
4 8032 8031 8151 8152 
4 8033 8032 8152 8153 
4 8034 8033 8153 8154 
4 8035 8034 8154 8155 
4 8036 8035 8155 8156 
4 8037 8036 8156 8157 
4 8038 8037 8157 8158 
4 8039 8038 8158 8159 
4 8040 8039 8159 8160 
4 8041 8040 8160 8161 
4 8042 8041 8161 8162 
4 8043 8042 8162 8163 
4 8044 8043 8163 8164 
4 8166 8044 8164 8165 
4 7918 7917 8044 8166 
4 8145 8027 8026 8167 
4 8169 8145 8167 8168 
4 8147 8146 8145 8169 
4 8148 8147 8169 8170 
4 8149 8148 8170 8171 
4 8150 8149 8171 8172 
4 8174 8150 8172 8173 
4 8151 8150 8174 8175 
4 8152 8151 8175 8176 
4 8153 8152 8176 8177 
4 8154 8153 8177 8178 
4 8155 8154 8178 8179 
4 8156 8155 8179 8180 
4 8157 8156 8180 8181 
4 8158 8157 8181 8182 
4 8159 8158 8182 8183 
4 8160 8159 8183 8184 
4 8161 8160 8184 8185 
4 8162 8161 8185 8186 
4 8163 8162 8186 8187 
4 8164 8163 8187 8188 
4 8165 8164 8188 8189 
4 8064 8165 8189 8190 
4 8192 8064 8190 8191 
4 8063 8064 8192 8193 
4 8065 8063 8193 8585 
4 8068 8067 8586 8299 
4 8069 8068 8299 8195 
4 8070 8069 8195 8196 
4 8071 8070 8196 8197 
4 8072 8071 8197 8198 
4 8073 8072 8198 8199 
4 8074 8073 8199 8200 
4 8075 8074 8200 8201 
4 8076 8075 8201 8202 
4 8077 8076 8202 8203 
4 8078 8077 8203 8204 
4 8134 8133 8130 8205 
4 8135 8134 8205 8206 
4 8136 8135 8206 8207 
4 8137 8136 8207 8208 
4 8138 8137 8208 8209 
4 8211 8138 8209 8210 
4 8139 8138 8211 8212 
4 8140 8139 8212 8213 
4 8141 8140 8213 8214 
4 8142 8141 8214 8215 
4 8143 8142 8215 8216 
4 8144 8143 8216 8217 
4 8219 8144 8217 8218 
4 7987 7986 8144 8219 
4 8205 8130 8129 8220 
4 8206 8205 8220 8221 
4 8207 8206 8221 8222 
4 8208 8207 8222 8223 
4 8209 8208 8223 8224 
4 8210 8209 8224 8225 
4 8227 8210 8225 8226 
4 8211 8210 8227 8228 
4 8212 8211 8228 8229 
4 8213 8212 8229 8230 
4 8214 8213 8230 8231 
4 8215 8214 8231 8232 
4 8216 8215 8232 8233 
4 8217 8216 8233 8234 
4 7988 8568 8235 8236 
4 7989 7988 8236 8237 
4 7990 7989 8237 8238 
4 7991 7990 8238 8098 
4 8079 8009 8008 8239 
4 8080 8079 8239 8240 
4 8081 8080 8240 8241 
4 8082 8081 8241 8242 
4 8083 8082 8242 8243 
4 8084 8083 8243 8244 
4 8246 8084 8244 8245 
4 8085 8084 8246 8124 
4 8104 8102 8101 8247 
4 8105 8104 8247 8248 
4 8106 8105 8248 8249 
4 8107 8106 8249 8250 
4 8108 8107 8250 8251 
4 8109 8108 8251 8252 
4 8110 8109 8252 8253 
4 8111 8110 8253 8254 
4 8112 8111 8254 8255 
4 8113 8112 8255 8256 
4 8114 8113 8256 8257 
4 8115 8114 8257 8258 
4 8116 8115 8258 8259 
4 8117 8116 8259 8260 
4 8262 8117 8260 8261 
4 8118 8117 8262 8263 
4 8119 8118 8263 8264 
4 8120 8119 8264 8265 
4 8121 8120 8265 8266 
4 8122 8121 8266 8267 
4 8123 8122 8267 8268 
4 8086 8123 8268 8087 
4 8026 8025 8054 8167 
4 8088 8087 8268 8269 
4 8089 8088 8269 8270 
4 8090 8089 8270 8271 
4 8091 8090 8271 8272 
4 8092 8091 8272 8273 
4 7957 8092 8273 8274 
4 7958 7957 8274 8275 
4 7959 7958 8275 8276 
4 7960 7959 8276 8277 
4 8099 8098 8238 8278 
4 8100 8099 8278 8279 
4 8101 8100 8279 8247 
4 8001 8204 8203 8280 
4 8002 8001 8280 8281 
4 8003 8002 8281 8282 
4 8004 8003 8282 8283 
4 8181 8180 8179 8284 
4 8182 8181 8284 8285 
4 8183 8182 8285 8286 
4 8184 8183 8286 8287 
4 8185 8184 8287 8288 
4 8186 8185 8288 8289 
4 8187 8186 8289 8290 
4 8188 8187 8290 8291 
4 8189 8188 8291 8292 
4 8190 8189 8292 8293 
4 8191 8190 8293 8294 
4 8296 8191 8294 8295 
4 8192 8191 8296 8297 
4 8193 8192 8297 8580 
4 8280 8203 8202 8300 
4 8281 8280 8300 8301 
4 8282 8281 8301 8302 
4 8283 8282 8302 8303 
4 8006 8283 8303 8304 
4 8007 8006 8304 8305 
4 8008 8007 8305 8306 
4 8239 8008 8306 8307 
4 8240 8239 8307 8308 
4 8241 8240 8308 8309 
4 8242 8241 8309 8310 
4 8243 8242 8310 8311 
4 8244 8243 8311 8312 
4 8245 8244 8312 8313 
4 8315 8245 8313 8314 
4 8246 8245 8315 8316 
4 8124 8246 8316 8125 
4 8126 8125 8316 8317 
4 8127 8126 8317 8318 
4 8320 8127 8318 8319 
4 8128 8127 8320 8321 
4 8220 8128 8321 8221 
4 8248 8247 8279 8322 
4 8249 8248 8322 8323 
4 8250 8249 8323 8324 
4 8251 8250 8324 8325 
4 8252 8251 8325 8326 
4 8253 8252 8326 8327 
4 8254 8253 8327 8328 
4 8255 8254 8328 8329 
4 8256 8255 8329 8330 
4 8257 8256 8330 8331 
4 8258 8257 8331 8332 
4 8259 8258 8332 8333 
4 8260 8259 8333 8334 
4 8261 8260 8334 8335 
4 8337 8261 8335 8336 
4 8262 8261 8337 8338 
4 8263 8262 8338 8339 
4 8264 8263 8339 8340 
4 8265 8264 8340 8341 
4 8266 8265 8341 8342 
4 8267 8266 8342 8343 
4 8268 8267 8343 8269 
4 8051 8365 8364 8344 
4 8052 8051 8344 8345 
4 8053 8052 8345 8346 
4 8054 8053 8346 8347 
4 8167 8054 8347 8168 
4 8195 8299 8298 8348 
4 8196 8195 8348 8349 
4 8197 8196 8349 8350 
4 8198 8197 8350 8351 
4 8199 8198 8351 8352 
4 8200 8199 8352 8353 
4 8201 8200 8353 8354 
4 8202 8201 8354 8300 
4 8237 8236 8355 8356 
4 8238 8237 8356 8278 
4 8270 8269 8343 8357 
4 8271 8270 8357 8358 
4 8272 8271 8358 8359 
4 8273 8272 8359 8360 
4 8274 8273 8360 8361 
4 8275 8274 8361 8362 
4 8276 8275 8362 8363 
4 8277 8276 8363 8364 
4 8366 8277 8364 8365 
4 7961 7960 8277 8366 
4 8279 8278 8356 8322 
4 8050 8059 7961 8366 
4 7962 7961 8059 8058 
4 8301 8300 8354 8367 
4 8302 8301 8367 8368 
4 8303 8302 8368 8369 
4 8304 8303 8369 8370 
4 8305 8304 8370 8371 
4 8306 8305 8371 8372 
4 8307 8306 8372 8373 
4 8308 8307 8373 8374 
4 8309 8308 8374 8375 
4 8310 8309 8375 8376 
4 8311 8310 8376 8377 
4 8312 8311 8377 8378 
4 8313 8312 8378 8379 
4 8314 8313 8379 8380 
4 8579 8314 8380 8381 
4 8315 8314 8579 8383 
4 8316 8315 8383 8317 
4 8344 8364 8363 8384 
4 8345 8344 8384 8385 
4 8346 8345 8385 8386 
4 8347 8346 8386 8387 
4 8168 8347 8387 8388 
4 8169 8168 8388 8389 
4 8170 8169 8389 8390 
4 8171 8170 8390 8391 
4 8172 8171 8391 8392 
4 8173 8172 8392 8393 
4 8395 8173 8393 8394 
4 8174 8173 8395 8396 
4 8175 8174 8396 8397 
4 8176 8175 8397 8398 
4 8177 8176 8398 8399 
4 8178 8177 8399 8400 
4 8179 8178 8400 8284 
4 8294 8293 8292 8401 
4 8295 8294 8401 8402 
4 8445 8295 8402 8403 
4 8296 8295 8445 8444 
4 8297 8296 8444 8443 
4 8348 8298 8404 8405 
4 8349 8348 8405 8406 
4 8350 8349 8406 8407 
4 8351 8350 8407 8408 
4 8352 8351 8408 8409 
4 8323 8322 8356 8410 
4 8324 8323 8410 8411 
4 8325 8324 8411 8412 
4 8326 8325 8412 8413 
4 8327 8326 8413 8414 
4 8328 8327 8414 8415 
4 8330 8329 8328 8415 
4 8331 8330 8415 8416 
4 8332 8331 8416 8417 
4 8333 8332 8417 8418 
4 8334 8333 8418 8419 
4 8336 8335 8334 8419 
4 8421 8336 8419 8420 
4 8337 8336 8421 8422 
4 8338 8337 8422 8423 
4 8339 8338 8423 8424 
4 8340 8339 8424 8425 
4 8342 8341 8426 8427 
4 8343 8342 8427 8357 
4 8318 8317 8383 8578 
4 8319 8318 8578 8472 
4 8428 8319 8472 8471 
4 8320 8319 8428 8429 
4 8321 8320 8429 8430 
4 8221 8321 8430 8222 
4 8358 8357 8427 8431 
4 8359 8358 8431 8432 
4 8360 8359 8432 8433 
4 8361 8360 8433 8434 
4 8362 8361 8434 8435 
4 8363 8362 8435 8436 
4 8384 8363 8436 8385 
4 8356 8355 8437 8410 
4 8368 8367 8354 8353 
4 8353 8352 8409 8368 
4 8369 8368 8409 8438 
4 8370 8369 8438 8439 
4 8372 8371 8370 8439 
4 8373 8372 8439 8474 
4 8378 8377 8440 8441 
4 8379 8378 8441 8442 
4 8380 8379 8442 8443 
4 8381 8380 8443 8444 
4 8446 8381 8444 8445 
4 8386 8385 8436 8447 
4 8387 8386 8447 8448 
4 8389 8388 8387 8448 
4 8390 8389 8448 8449 
4 8391 8390 8449 8450 
4 8392 8391 8450 8451 
4 8393 8392 8451 8452 
4 8394 8393 8452 8453 
4 8540 8394 8453 8425 
4 8395 8394 8540 8454 
4 8396 8395 8454 8455 
4 8397 8396 8455 8456 
4 8398 8397 8456 8457 
4 8399 8398 8457 8458 
4 8400 8399 8458 8459 
4 8284 8400 8459 8460 
4 8285 8284 8460 8461 
4 8286 8285 8461 8462 
4 8287 8286 8462 8463 
4 8288 8287 8463 8464 
4 8289 8288 8464 8465 
4 8290 8289 8465 8466 
4 8291 8290 8466 8467 
4 8292 8291 8467 8401 
4 8341 8340 8468 8426 
4 8340 8425 8453 8468 
4 8402 8401 8467 8469 
4 8403 8402 8469 8470 
4 8472 8403 8470 8471 
4 8446 8445 8403 8472 
4 8405 8404 8441 8440 
4 8406 8405 8440 8473 
4 8438 8409 8408 8475 
4 8474 8439 8438 8475 
4 8223 8222 8430 8476 
4 8224 8223 8476 8477 
4 8225 8224 8477 8478 
4 8226 8225 8478 8479 
4 8481 8226 8479 8480 
4 8227 8226 8481 8482 
4 8228 8227 8482 8483 
4 8229 8228 8483 8484 
4 8230 8229 8484 8485 
4 8231 8230 8485 8486 
4 8232 8231 8486 8487 
4 8411 8410 8437 8488 
4 8412 8411 8488 8531 
4 8413 8412 8531 8530 
4 8416 8415 8414 8489 
4 8417 8416 8489 8490 
4 8418 8417 8490 8491 
4 8419 8418 8491 8492 
4 8420 8419 8492 8493 
4 8431 8427 8426 8494 
4 8432 8431 8494 8495 
4 8433 8432 8495 8496 
4 8434 8433 8496 8497 
4 8435 8434 8497 8498 
4 8436 8435 8498 8447 
4 8429 8428 8499 8500 
4 8430 8429 8500 8501 
4 8476 8430 8501 8502 
4 8477 8476 8502 8503 
4 8478 8477 8503 8504 
4 8479 8478 8504 8505 
4 8480 8479 8505 8506 
4 8508 8480 8506 8507 
4 8481 8480 8508 8509 
4 8482 8481 8509 8510 
4 8483 8482 8510 8511 
4 8484 8483 8511 8512 
4 8485 8484 8512 8513 
4 8486 8485 8513 8514 
4 8487 8486 8514 8515 
4 8437 8487 8515 8488 
4 8469 8467 8466 8516 
4 8470 8469 8516 8517 
4 8500 8499 8518 8519 
4 8501 8500 8519 8520 
4 8502 8501 8520 8521 
4 8503 8502 8521 8522 
4 8504 8503 8522 8523 
4 8505 8504 8523 8524 
4 8506 8505 8524 8525 
4 8507 8506 8525 8526 
4 8534 8507 8526 8535 
4 8508 8507 8534 8527 
4 8509 8508 8527 8528 
4 8510 8509 8528 8529 
4 8511 8510 8529 8533 
4 8512 8511 8533 8532 
4 8513 8512 8532 8530 
4 8514 8513 8530 8531 
4 8489 8414 8532 8533 
4 8490 8489 8533 8529 
4 8491 8490 8529 8528 
4 8531 8488 8515 8514 
4 8492 8491 8528 8527 
4 8493 8492 8527 8534 
4 8536 8493 8534 8535 
4 8420 8493 8536 8537 
4 8421 8420 8537 8538 
4 8422 8421 8538 8542 
4 8423 8422 8542 8543 
4 8424 8423 8543 8539 
4 8449 8448 8447 8498 
4 8450 8449 8498 8497 
4 8451 8450 8497 8496 
4 8425 8424 8539 8540 
4 8452 8451 8496 8495 
4 8468 8453 8452 8541 
4 8494 8426 8468 8541 
4 8452 8495 8494 8541 
4 8454 8540 8539 8543 
4 8455 8454 8543 8542 
4 8456 8455 8542 8538 
4 8457 8456 8538 8544 
4 8458 8457 8544 8545 
4 8459 8458 8545 8546 
4 8460 8459 8546 8547 
4 8461 8460 8547 8548 
4 8462 8461 8548 8549 
4 8463 8462 8549 8550 
4 8464 8463 8550 8551 
4 8465 8464 8551 8552 
4 8466 8465 8552 8516 
4 8517 8516 8552 8518 
4 8519 8518 8552 8551 
4 8520 8519 8551 8553 
4 8521 8520 8553 8562 
4 8522 8521 8562 8554 
4 8523 8522 8554 8555 
4 8524 8523 8555 8556 
4 8525 8524 8556 8557 
4 8526 8525 8557 8558 
4 8535 8526 8558 8559 
4 8536 8535 8559 8560 
4 8537 8536 8560 8561 
4 8538 8537 8561 8544 
4 8545 8544 8561 8560 
4 8546 8545 8560 8559 
4 8547 8546 8559 8558 
4 8548 8547 8558 8557 
4 8549 8548 8557 8556 
4 8553 8551 8550 8562 
4 7833 8563 7736 7735 
4 7599 7598 7736 8563 
4 7470 7489 8564 7471 
4 7599 8563 8564 7489 
4 7501 7500 7754 8565 
4 7502 7501 8565 8566 
4 8566 8565 8567 8568 
4 8565 7754 8218 8567 
4 8567 8218 8217 8234 
4 8568 8567 8234 8235 
4 7823 7822 8005 8569 
4 7824 7823 8569 7998 
4 7998 8569 8283 8006 
4 8569 8005 8004 8283 
4 7701 7858 8570 7702 
4 7702 8570 7851 7703 
4 7858 7852 7851 8570 
4 7965 7964 8571 8094 
4 8093 8094 8571 8060 
4 8572 8061 8062 8056 
4 8572 8571 7964 8061 
4 8573 8133 8574 7977 
4 7742 8573 7977 7743 
4 7743 7977 8574 7744 
4 8575 8095 7973 7972 
4 8576 8575 7972 7971 
4 8132 8576 7971 7970 
4 8095 8575 7862 7861 
4 8575 8576 7863 7862 
4 8576 8132 7865 7863 
4 8235 8234 8233 8577 
4 8236 8235 8577 8355 
4 8355 8577 8487 8437 
4 8577 8233 8232 8487 
4 8578 8383 8579 8382 
4 8472 8578 8382 8446 
4 8446 8382 8579 8381 
4 8441 8404 8580 8442 
4 8443 8442 8580 8297 
4 8581 8298 8299 8586 
4 8581 8580 8404 8298 
4 8193 8580 8581 8585 
4 8377 8376 8473 8440 
4 8428 8471 8582 8499 
4 8499 8582 8517 8518 
4 8471 8470 8517 8582 
4 8583 8473 8376 8375 
4 8584 8583 8375 8374 
4 8474 8584 8374 8373 
4 8473 8583 8407 8406 
4 8583 8584 8408 8407 
4 8584 8474 8475 8408 
4 8532 8414 8413 8530 
4 8554 8562 8550 8549 
4 8555 8554 8549 8556 
4 7536 7535 7471 8564 
4 8585 8581 8586 8194 
4 8065 8585 8194 8066 
4 8066 8194 8586 8067 
4 49 72 172 70 
4 70 172 173 69 
4 172 175 174 173 
4 172 72 176 175 
4 72 73 177 176 
4 73 74 178 177 
4 74 75 179 178 
4 75 76 180 179 
4 76 77 181 180 
4 77 78 182 181 
4 78 79 183 182 
4 79 80 184 183 
4 80 81 185 184 
4 81 82 186 185 
4 82 83 187 186 
4 83 84 188 187 
4 84 85 189 188 
4 85 86 190 189 
4 86 87 191 190 
4 87 88 192 191 
4 88 89 193 192 
4 89 90 91 193 
4 91 92 350 193 
4 92 93 194 350 
4 93 94 195 194 
4 94 95 196 195 
4 95 96 197 196 
4 96 97 198 197 
4 97 98 199 198 
4 98 99 200 199 
4 99 100 201 200 
4 100 101 202 201 
4 101 102 203 202 
4 102 103 204 203 
4 103 104 205 204 
4 104 105 206 205 
4 105 106 207 206 
4 0 50 208 2 
4 50 51 209 208 
4 51 52 210 209 
4 52 53 211 210 
4 53 54 212 211 
4 54 55 213 212 
4 55 56 214 213 
4 56 57 215 214 
4 57 58 216 215 
4 58 59 217 216 
4 59 60 218 217 
4 60 61 219 218 
4 61 62 220 219 
4 62 63 221 220 
4 63 64 222 221 
4 64 65 223 222 
4 65 66 224 223 
4 66 67 225 224 
4 67 68 226 225 
4 68 69 173 226 
4 106 107 227 207 
4 107 108 228 227 
4 108 109 229 228 
4 109 110 230 229 
4 110 111 231 230 
4 111 112 232 231 
4 112 113 233 232 
4 113 114 234 233 
4 114 115 235 234 
4 115 116 236 235 
4 116 117 237 236 
4 117 118 238 237 
4 118 119 239 238 
4 119 120 240 239 
4 120 121 241 240 
4 121 122 242 241 
4 122 123 243 242 
4 123 124 244 243 
4 124 125 245 244 
4 125 126 246 245 
4 126 127 247 246 
4 127 128 248 247 
4 128 129 249 248 
4 129 130 250 249 
4 130 131 251 250 
4 131 132 252 251 
4 132 133 253 252 
4 133 134 254 253 
4 134 135 255 254 
4 135 136 256 255 
4 136 137 257 256 
4 137 138 258 257 
4 138 139 259 258 
4 139 140 260 259 
4 140 141 261 260 
4 141 142 262 261 
4 142 143 263 262 
4 143 144 264 263 
4 144 145 265 264 
4 145 146 266 265 
4 146 147 267 266 
4 147 148 268 267 
4 148 149 269 268 
4 149 150 270 269 
4 150 151 271 270 
4 151 152 272 271 
4 152 153 273 272 
4 153 154 274 273 
4 154 155 275 274 
4 155 156 276 275 
4 156 71 171 276 
4 1 48 277 157 
4 48 47 278 277 
4 47 46 279 278 
4 46 45 280 279 
4 45 44 281 280 
4 44 43 282 281 
4 43 42 283 282 
4 42 41 284 283 
4 41 40 285 284 
4 40 39 286 285 
4 39 38 287 286 
4 38 37 288 287 
4 37 36 289 288 
4 36 35 290 289 
4 35 34 291 290 
4 34 33 292 291 
4 33 32 293 292 
4 32 31 294 293 
4 31 30 295 294 
4 30 29 296 295 
4 29 28 297 296 
4 28 27 298 297 
4 27 26 299 298 
4 26 25 300 299 
4 25 24 301 300 
4 24 23 302 301 
4 23 22 303 302 
4 22 21 304 303 
4 21 20 305 304 
4 20 19 306 305 
4 19 18 307 306 
4 18 17 308 307 
4 17 16 309 308 
4 16 15 310 309 
4 15 14 311 310 
4 14 13 312 311 
4 13 12 313 312 
4 12 11 314 313 
4 11 10 315 314 
4 10 9 316 315 
4 9 8 317 316 
4 8 7 318 317 
4 7 6 319 318 
4 6 5 320 319 
4 5 4 321 320 
4 4 3 322 321 
4 3 2 208 322 
4 171 170 323 276 
4 170 169 324 323 
4 169 168 325 324 
4 168 167 326 325 
4 167 166 327 326 
4 166 165 328 327 
4 165 164 329 328 
4 164 163 330 329 
4 163 162 331 330 
4 162 161 332 331 
4 161 160 333 332 
4 160 159 334 333 
4 159 158 335 334 
4 158 157 277 335 
4 176 177 336 175 
4 177 178 337 336 
4 178 179 338 337 
4 179 180 339 338 
4 180 181 340 339 
4 181 182 341 340 
4 182 183 342 341 
4 183 184 343 342 
4 184 185 344 343 
4 185 186 345 344 
4 186 187 346 345 
4 187 188 347 346 
4 188 189 491 347 
4 189 190 490 491 
4 190 191 348 490 
4 191 192 349 348 
4 192 193 350 349 
4 350 194 351 349 
4 194 195 352 351 
4 195 196 353 352 
4 196 197 354 353 
4 197 198 355 354 
4 198 199 356 355 
4 199 200 357 356 
4 200 201 358 357 
4 201 202 359 358 
4 203 204 361 360 
4 204 205 362 361 
4 205 206 363 362 
4 206 207 364 363 
4 207 227 365 364 
4 228 229 367 366 
4 229 230 368 367 
4 230 231 369 368 
4 231 232 370 369 
4 233 234 372 371 
4 234 235 373 372 
4 235 236 374 373 
4 236 237 375 374 
4 237 238 376 375 
4 238 239 377 376 
4 239 240 378 377 
4 240 241 379 378 
4 241 242 380 379 
4 242 243 381 380 
4 243 244 382 381 
4 244 245 383 382 
4 245 246 384 383 
4 246 247 532 384 
4 247 248 385 532 
4 250 251 386 385 
4 251 252 387 386 
4 252 253 388 387 
4 253 254 389 388 
4 254 255 390 389 
4 255 256 391 390 
4 256 257 392 391 
4 257 258 393 392 
4 258 259 394 393 
4 259 260 395 394 
4 260 261 396 395 
4 261 262 397 396 
4 262 263 398 397 
4 263 264 399 398 
4 264 265 400 399 
4 265 266 401 400 
4 266 267 402 401 
4 267 268 403 402 
4 268 269 404 403 
4 269 270 405 404 
4 270 271 406 405 
4 271 272 407 406 
4 272 273 408 407 
4 273 274 409 408 
4 274 275 410 409 
4 275 276 323 410 
4 232 233 371 411 
4 370 232 411 412 
4 202 203 360 413 
4 359 202 413 414 
4 227 228 366 415 
4 365 227 415 416 
4 277 278 417 335 
4 278 279 418 417 
4 279 280 419 418 
4 280 281 420 419 
4 281 282 421 420 
4 282 283 422 421 
4 283 284 423 422 
4 284 285 424 423 
4 285 286 425 424 
4 286 287 426 425 
4 287 288 427 426 
4 288 289 428 427 
4 289 290 429 428 
4 290 291 430 429 
4 291 292 431 430 
4 292 293 432 431 
4 293 294 433 432 
4 294 295 434 433 
4 295 296 435 434 
4 296 297 436 435 
4 297 298 437 436 
4 298 299 438 437 
4 299 300 439 438 
4 300 301 440 439 
4 301 302 441 440 
4 302 303 442 441 
4 303 304 443 442 
4 304 305 444 443 
4 305 306 445 444 
4 306 307 446 445 
4 307 308 447 446 
4 308 309 448 447 
4 309 310 449 448 
4 310 311 450 449 
4 311 312 451 450 
4 312 313 452 451 
4 313 314 453 452 
4 314 315 454 453 
4 315 316 455 454 
4 316 317 456 455 
4 317 318 457 456 
4 318 319 458 457 
4 319 320 459 458 
4 320 321 460 459 
4 321 322 461 460 
4 322 208 209 461 
4 209 210 462 461 
4 210 211 463 462 
4 211 212 464 463 
4 212 213 465 464 
4 213 214 466 465 
4 214 215 467 466 
4 215 216 468 467 
4 216 217 469 468 
4 217 218 470 469 
4 218 219 471 470 
4 219 220 472 471 
4 220 221 473 472 
4 221 222 474 473 
4 222 223 475 474 
4 223 224 476 475 
4 224 225 477 476 
4 225 226 478 477 
4 226 173 174 478 
4 323 324 479 410 
4 324 325 480 479 
4 325 326 481 480 
4 326 327 482 481 
4 327 328 483 482 
4 328 329 484 483 
4 329 330 485 484 
4 330 331 486 485 
4 331 332 487 486 
4 332 333 488 487 
4 333 334 489 488 
4 334 335 417 489 
4 349 351 490 348 
4 351 352 491 490 
4 352 353 492 491 
4 353 354 493 492 
4 354 355 494 493 
4 355 356 495 494 
4 356 357 496 495 
4 357 358 497 496 
4 358 359 498 497 
4 359 414 499 498 
4 414 501 500 499 
4 414 413 502 501 
4 413 360 503 502 
4 360 361 504 503 
4 361 362 505 504 
4 362 363 506 505 
4 363 364 507 506 
4 364 365 508 507 
4 365 416 509 508 
4 416 511 510 509 
4 416 415 512 511 
4 415 366 513 512 
4 366 367 514 513 
4 367 368 515 514 
4 368 369 516 515 
4 369 370 517 516 
4 370 412 518 517 
4 412 520 519 518 
4 412 411 521 520 
4 411 371 522 521 
4 371 372 523 522 
4 372 373 524 523 
4 373 374 525 524 
4 374 375 526 525 
4 375 376 527 526 
4 377 378 527 376 
4 378 379 528 527 
4 379 380 529 528 
4 380 381 530 529 
4 385 386 533 532 
4 386 387 534 533 
4 387 388 535 534 
4 388 389 536 535 
4 389 390 537 536 
4 390 391 538 537 
4 391 392 539 538 
4 392 393 540 539 
4 393 394 541 540 
4 395 396 541 394 
4 396 397 542 541 
4 397 398 543 542 
4 398 399 544 543 
4 399 400 545 544 
4 400 401 546 545 
4 401 402 547 546 
4 402 403 548 547 
4 403 404 549 548 
4 404 405 550 549 
4 405 406 551 550 
4 406 407 552 551 
4 407 408 553 552 
4 408 409 554 553 
4 409 410 555 554 
4 410 479 556 555 
4 479 480 557 556 
4 480 481 558 557 
4 481 482 559 558 
4 482 483 560 559 
4 483 484 561 560 
4 484 485 562 561 
4 485 486 563 562 
4 486 487 564 563 
4 487 488 565 564 
4 488 489 566 565 
4 489 417 418 566 
4 175 336 567 174 
4 336 337 568 567 
4 337 338 569 568 
4 338 339 570 569 
4 339 340 571 570 
4 340 341 572 571 
4 341 342 573 572 
4 342 343 574 573 
4 343 344 575 574 
4 344 345 576 575 
4 345 346 577 576 
4 346 347 578 577 
4 347 491 492 578 
4 461 462 579 460 
4 462 463 580 579 
4 463 464 581 580 
4 464 465 582 581 
4 465 466 583 582 
4 466 467 584 583 
4 467 468 585 584 
4 468 469 586 585 
4 469 470 587 586 
4 470 471 588 587 
4 471 472 589 588 
4 472 473 590 589 
4 473 474 591 590 
4 474 475 592 591 
4 475 476 593 592 
4 476 477 594 593 
4 477 478 595 594 
4 478 174 567 595 
4 418 419 596 566 
4 419 420 597 596 
4 420 421 598 597 
4 421 422 599 598 
4 422 423 600 599 
4 423 424 601 600 
4 424 425 602 601 
4 425 426 603 602 
4 426 427 604 603 
4 427 428 605 604 
4 428 429 606 605 
4 429 430 607 606 
4 430 431 608 607 
4 431 432 609 608 
4 432 433 610 609 
4 433 434 611 610 
4 434 435 612 611 
4 435 436 613 612 
4 436 437 614 613 
4 437 438 615 614 
4 438 439 616 615 
4 439 440 617 616 
4 440 441 618 617 
4 441 442 619 618 
4 442 443 620 619 
4 443 444 621 620 
4 444 445 622 621 
4 445 446 623 622 
4 446 447 624 623 
4 447 448 625 624 
4 448 449 626 625 
4 449 450 627 626 
4 450 451 628 627 
4 451 452 629 628 
4 452 453 630 629 
4 453 454 631 630 
4 454 455 632 631 
4 455 456 633 632 
4 456 457 634 633 
4 457 458 635 634 
4 458 459 636 635 
4 459 460 579 636 
4 492 493 637 578 
4 493 494 638 637 
4 494 495 639 638 
4 495 496 640 639 
4 496 497 641 640 
4 497 498 642 641 
4 498 499 643 642 
4 499 500 644 643 
4 500 646 645 644 
4 500 501 647 646 
4 501 502 648 647 
4 502 503 649 648 
4 503 504 650 649 
4 504 505 651 650 
4 505 506 652 651 
4 506 507 653 652 
4 507 508 654 653 
4 508 509 655 654 
4 509 510 656 655 
4 510 658 657 656 
4 510 511 659 658 
4 511 512 660 659 
4 512 513 661 660 
4 513 514 662 661 
4 514 515 663 662 
4 515 516 664 663 
4 516 517 805 664 
4 517 518 826 805 
4 518 519 665 826 
4 519 667 666 665 
4 519 520 668 667 
4 520 521 669 668 
4 521 522 670 669 
4 522 523 671 670 
4 523 524 672 671 
4 524 525 673 672 
4 525 526 674 673 
4 526 527 675 674 
4 527 528 676 675 
4 528 529 677 676 
4 529 530 678 677 
4 530 531 679 678 
4 532 533 680 679 
4 533 534 681 680 
4 534 535 682 681 
4 535 536 683 682 
4 536 537 684 683 
4 537 538 685 684 
4 538 539 686 685 
4 539 540 687 686 
4 540 541 688 687 
4 541 542 689 688 
4 542 543 690 689 
4 543 544 691 690 
4 544 545 692 691 
4 545 546 693 692 
4 546 547 694 693 
4 547 548 695 694 
4 548 549 696 695 
4 549 550 697 696 
4 551 552 699 698 
4 552 553 700 699 
4 553 554 701 700 
4 554 555 702 701 
4 555 556 703 702 
4 556 557 704 703 
4 557 558 705 704 
4 558 559 706 705 
4 559 560 707 706 
4 560 561 708 707 
4 561 562 709 708 
4 562 563 710 709 
4 563 564 711 710 
4 564 565 712 711 
4 565 566 596 712 
4 550 551 698 713 
4 697 550 713 714 
4 579 580 715 636 
4 580 581 716 715 
4 581 582 717 716 
4 582 583 718 717 
4 583 584 719 718 
4 584 585 720 719 
4 585 586 721 720 
4 586 587 722 721 
4 587 588 723 722 
4 588 589 724 723 
4 589 590 725 724 
4 590 591 726 725 
4 591 592 727 726 
4 592 593 728 727 
4 593 594 729 728 
4 594 595 730 729 
4 595 567 731 730 
4 567 568 732 731 
4 568 569 733 732 
4 570 571 735 734 
4 571 572 736 735 
4 572 573 737 736 
4 574 575 737 573 
4 575 576 738 737 
4 576 577 739 738 
4 577 578 637 739 
4 569 570 734 740 
4 733 569 740 741 
4 596 597 742 712 
4 597 598 743 742 
4 598 599 744 743 
4 599 600 745 744 
4 600 601 746 745 
4 601 602 747 746 
4 602 603 748 747 
4 603 604 749 748 
4 604 605 750 749 
4 605 606 751 750 
4 606 607 752 751 
4 607 608 753 752 
4 608 609 754 753 
4 609 610 755 754 
4 610 611 756 755 
4 611 612 757 756 
4 612 613 758 757 
4 613 614 759 758 
4 614 615 760 759 
4 615 616 761 760 
4 616 617 762 761 
4 617 618 763 762 
4 618 619 764 763 
4 619 620 765 764 
4 620 621 766 765 
4 621 622 767 766 
4 622 623 768 767 
4 623 624 769 768 
4 624 625 770 769 
4 625 626 771 770 
4 626 627 772 771 
4 627 628 773 772 
4 628 629 774 773 
4 629 630 775 774 
4 630 631 776 775 
4 631 632 777 776 
4 632 633 778 777 
4 633 634 779 778 
4 634 635 780 779 
4 635 636 715 780 
4 637 638 781 739 
4 638 639 901 781 
4 640 641 783 782 
4 641 642 643 783 
4 643 644 1515 783 
4 644 645 1028 942 
4 645 784 1027 1028 
4 645 646 785 784 
4 646 647 786 785 
4 647 648 787 786 
4 648 649 788 787 
4 649 650 789 788 
4 650 651 790 789 
4 651 652 791 790 
4 652 653 792 791 
4 653 654 793 792 
4 654 655 794 793 
4 655 656 795 794 
4 656 657 796 795 
4 657 798 797 796 
4 657 658 799 798 
4 658 659 800 799 
4 659 660 801 800 
4 660 661 802 801 
4 661 662 803 802 
4 662 663 804 803 
4 663 664 805 804 
4 788 789 806 787 
4 789 790 807 806 
4 792 793 810 809 
4 793 794 811 810 
4 794 795 812 811 
4 795 796 813 812 
4 796 797 814 813 
4 797 816 815 814 
4 797 798 817 816 
4 798 799 818 817 
4 799 800 819 818 
4 800 801 820 819 
4 801 802 821 820 
4 802 803 822 821 
4 803 804 823 822 
4 804 805 824 823 
4 805 826 825 824 
4 826 665 827 825 
4 665 666 828 827 
4 666 830 829 828 
4 666 667 831 830 
4 667 668 832 831 
4 668 669 833 832 
4 669 670 671 833 
4 671 672 998 833 
4 672 673 834 998 
4 673 674 835 834 
4 674 675 836 835 
4 675 676 837 836 
4 676 677 838 837 
4 677 678 839 838 
4 678 679 680 839 
4 680 681 840 839 
4 681 682 841 840 
4 682 683 842 841 
4 683 684 843 842 
4 684 685 844 843 
4 685 686 845 844 
4 686 687 846 845 
4 687 688 847 846 
4 688 689 848 847 
4 689 690 849 848 
4 690 691 850 849 
4 691 692 851 850 
4 692 693 852 851 
4 693 694 853 852 
4 694 695 854 853 
4 695 696 855 854 
4 696 697 856 855 
4 697 714 857 856 
4 714 859 858 857 
4 714 713 860 859 
4 713 698 861 860 
4 698 699 862 861 
4 699 700 863 862 
4 700 701 864 863 
4 701 702 865 864 
4 702 703 866 865 
4 703 704 867 866 
4 704 705 868 867 
4 705 706 869 868 
4 706 707 870 869 
4 707 708 871 870 
4 708 709 872 871 
4 709 710 873 872 
4 710 711 874 873 
4 711 712 742 874 
4 715 716 875 780 
4 716 717 876 875 
4 717 718 877 876 
4 718 719 878 877 
4 719 720 879 878 
4 720 721 880 879 
4 721 722 881 880 
4 722 723 882 881 
4 723 724 883 882 
4 724 725 884 883 
4 725 726 885 884 
4 726 727 886 885 
4 727 728 887 886 
4 728 729 888 887 
4 729 730 889 888 
4 730 731 890 889 
4 731 732 891 890 
4 732 733 892 891 
4 733 741 893 892 
4 741 895 894 893 
4 741 740 896 895 
4 740 734 897 896 
4 734 735 898 897 
4 735 736 899 898 
4 736 737 900 899 
4 737 738 901 900 
4 738 739 781 901 
4 639 640 782 902 
4 742 743 903 874 
4 743 744 904 903 
4 744 745 905 904 
4 745 746 906 905 
4 746 747 907 906 
4 747 748 908 907 
4 748 749 909 908 
4 749 750 910 909 
4 750 751 911 910 
4 751 752 912 911 
4 752 753 913 912 
4 753 754 914 913 
4 754 755 915 914 
4 755 756 916 915 
4 756 757 917 916 
4 757 758 918 917 
4 758 759 919 918 
4 759 760 920 919 
4 760 761 921 920 
4 761 762 922 921 
4 762 763 923 922 
4 763 764 924 923 
4 764 765 925 924 
4 765 766 926 925 
4 766 767 927 926 
4 767 768 928 927 
4 768 769 929 928 
4 769 770 930 929 
4 770 771 931 930 
4 771 772 932 931 
4 772 773 933 932 
4 773 774 934 933 
4 774 775 935 934 
4 775 776 936 935 
4 776 777 937 936 
4 777 778 938 937 
4 778 779 939 938 
4 779 780 875 939 
4 901 639 902 900 
4 900 902 940 899 
4 902 782 941 940 
4 782 783 1515 941 
4 839 840 943 838 
4 840 841 944 943 
4 841 842 945 944 
4 842 843 946 945 
4 843 844 947 946 
4 844 845 948 947 
4 845 846 949 948 
4 846 847 950 949 
4 847 848 951 950 
4 848 849 952 951 
4 849 850 953 952 
4 850 851 954 953 
4 851 852 955 954 
4 852 853 956 955 
4 853 854 957 956 
4 854 855 958 957 
4 855 856 959 958 
4 856 857 960 959 
4 857 858 961 960 
4 858 963 962 961 
4 858 859 964 963 
4 859 860 965 964 
4 860 861 966 965 
4 861 862 967 966 
4 862 863 968 967 
4 863 864 969 968 
4 864 865 866 969 
4 787 806 970 786 
4 806 807 971 970 
4 809 810 974 973 
4 810 811 975 974 
4 811 812 976 975 
4 812 813 977 976 
4 813 814 978 977 
4 814 815 979 978 
4 815 981 980 979 
4 815 816 982 981 
4 816 817 983 982 
4 817 818 984 983 
4 819 820 984 818 
4 820 821 985 984 
4 821 822 986 985 
4 822 823 987 986 
4 823 824 988 987 
4 824 825 989 988 
4 825 827 990 989 
4 827 828 991 990 
4 828 829 992 991 
4 829 994 993 992 
4 829 830 995 994 
4 830 831 996 995 
4 831 832 997 996 
4 832 833 998 997 
4 808 809 973 999 
4 972 808 999 1000 
4 866 867 1001 969 
4 867 868 1002 1001 
4 868 869 1003 1002 
4 869 870 1004 1003 
4 870 871 1005 1004 
4 871 872 1006 1005 
4 872 873 1007 1006 
4 873 874 903 1007 
4 875 876 1008 939 
4 876 877 1009 1008 
4 877 878 1010 1009 
4 878 879 1011 1010 
4 879 880 1012 1011 
4 880 881 1013 1012 
4 881 882 1014 1013 
4 882 883 1015 1014 
4 883 884 1016 1015 
4 884 885 1017 1016 
4 885 886 1018 1017 
4 886 887 1019 1018 
4 887 888 1020 1019 
4 888 889 1021 1020 
4 889 890 1022 1021 
4 890 891 1023 1022 
4 891 892 1024 1023 
4 892 893 1025 1024 
4 893 894 1026 1025 
4 894 1028 1027 1026 
4 998 834 1031 997 
4 834 835 1032 1031 
4 835 836 1033 1032 
4 836 837 1034 1033 
4 837 838 943 1034 
4 903 904 1035 1007 
4 904 905 1036 1035 
4 905 906 1037 1036 
4 906 907 1038 1037 
4 907 908 1039 1038 
4 908 909 1040 1039 
4 909 910 1041 1040 
4 910 911 1042 1041 
4 911 912 1043 1042 
4 912 913 1044 1043 
4 913 914 1045 1044 
4 914 915 1046 1045 
4 915 916 1047 1046 
4 916 917 1048 1047 
4 917 918 1049 1048 
4 918 919 1050 1049 
4 919 920 1051 1050 
4 920 921 1052 1051 
4 921 922 1053 1052 
4 922 923 1054 1053 
4 923 924 1055 1054 
4 924 925 1056 1055 
4 925 926 1057 1056 
4 926 927 1058 1057 
4 927 928 1059 1058 
4 928 929 1060 1059 
4 929 930 1061 1060 
4 930 931 1062 1061 
4 931 932 1063 1062 
4 932 933 1064 1063 
4 933 934 1065 1064 
4 934 935 1066 1065 
4 935 936 1067 1066 
4 936 937 1068 1067 
4 937 938 1069 1068 
4 938 939 1008 1069 
4 1027 784 1070 1026 
4 784 785 1071 1070 
4 785 786 970 1071 
4 894 895 942 1028 
4 1008 1009 1072 1069 
4 1009 1010 1073 1072 
4 1010 1011 1074 1073 
4 1011 1012 1075 1074 
4 1012 1013 1076 1075 
4 1013 1014 1077 1076 
4 1014 1015 1078 1077 
4 1015 1016 1079 1078 
4 1016 1017 1080 1079 
4 1017 1018 1081 1080 
4 1018 1019 1082 1081 
4 1019 1020 1083 1082 
4 1020 1021 1084 1083 
4 1021 1022 1085 1084 
4 1022 1023 1086 1085 
4 1023 1024 1025 1086 
4 895 896 1514 942 
4 943 944 1033 1034 
4 944 945 1113 1033 
4 945 946 1087 1113 
4 951 952 1090 1089 
4 952 953 1091 1090 
4 953 954 1092 1091 
4 954 955 1093 1092 
4 955 956 1094 1093 
4 956 957 1095 1094 
4 957 958 1096 1095 
4 958 959 1097 1096 
4 959 960 1098 1097 
4 960 961 1099 1098 
4 961 962 1100 1099 
4 962 1102 1101 1100 
4 962 963 1103 1102 
4 963 964 1104 1103 
4 964 965 1105 1104 
4 965 966 1106 1105 
4 966 967 1107 1106 
4 967 968 1108 1107 
4 968 969 1001 1108 
4 899 940 1109 898 
4 940 941 1110 1109 
4 896 897 1110 1514 
4 897 898 1109 1110 
4 1025 1026 1070 1086 
4 997 1031 1111 996 
4 1031 1032 1112 1111 
4 1032 1033 1113 1112 
4 971 1030 1115 1518 
4 1030 1029 1116 1115 
4 1029 972 1117 1116 
4 972 1000 1118 1117 
4 1000 999 1119 1118 
4 999 973 1120 1119 
4 973 974 1121 1120 
4 974 975 1122 1121 
4 975 976 1123 1122 
4 976 977 1124 1123 
4 977 978 1125 1124 
4 979 980 1125 978 
4 980 1127 1126 1125 
4 980 981 1128 1127 
4 981 982 1129 1128 
4 982 983 1130 1129 
4 983 984 1131 1130 
4 984 985 1132 1131 
4 985 986 1133 1132 
4 986 987 1134 1133 
4 987 988 1135 1134 
4 988 989 1136 1135 
4 989 990 1137 1136 
4 990 991 1138 1137 
4 992 993 1138 991 
4 993 1140 1139 1138 
4 993 994 1141 1140 
4 994 995 1142 1141 
4 1111 1112 1144 1517 
4 1112 1113 1087 1144 
4 947 948 1088 1145 
4 1007 1035 1146 1006 
4 1035 1036 1147 1146 
4 1036 1037 1148 1147 
4 1037 1038 1149 1148 
4 1038 1039 1150 1149 
4 1039 1040 1151 1150 
4 1040 1041 1152 1151 
4 1041 1042 1153 1152 
4 1042 1043 1154 1153 
4 1043 1044 1155 1154 
4 1044 1045 1156 1155 
4 1045 1046 1157 1156 
4 1046 1047 1158 1157 
4 1047 1048 1159 1158 
4 1048 1049 1160 1159 
4 1049 1050 1161 1160 
4 1050 1051 1162 1161 
4 1051 1052 1163 1162 
4 1052 1053 1164 1163 
4 1053 1054 1165 1164 
4 1054 1055 1166 1165 
4 1055 1056 1167 1166 
4 1056 1057 1168 1167 
4 1057 1058 1169 1168 
4 1058 1059 1170 1169 
4 1059 1060 1171 1170 
4 1060 1061 1172 1171 
4 1061 1062 1173 1172 
4 1062 1063 1174 1173 
4 1063 1064 1175 1174 
4 1064 1065 1176 1175 
4 1065 1066 1177 1176 
4 1066 1067 1178 1177 
4 1067 1068 1179 1178 
4 1068 1069 1072 1179 
4 1001 1002 1180 1108 
4 1002 1003 1181 1180 
4 1003 1004 1182 1181 
4 1004 1005 1183 1182 
4 1005 1006 1146 1183 
4 1086 1070 1184 1085 
4 1070 1071 1114 1184 
4 1145 1088 1185 1516 
4 1090 1091 1186 1185 
4 1091 1092 1187 1186 
4 1092 1093 1289 1187 
4 1093 1094 1288 1289 
4 1094 1095 1287 1288 
4 1095 1096 1188 1287 
4 1096 1097 1189 1188 
4 1097 1098 1190 1189 
4 1098 1099 1191 1190 
4 1099 1100 1192 1191 
4 1100 1101 1193 1192 
4 1101 1195 1194 1193 
4 1101 1102 1196 1195 
4 1102 1103 1197 1196 
4 1103 1104 1198 1197 
4 1104 1105 1199 1198 
4 1105 1106 1200 1199 
4 1106 1107 1201 1200 
4 1107 1108 1202 1201 
4 1108 1180 1203 1202 
4 1180 1181 1204 1203 
4 1181 1182 1205 1204 
4 1182 1183 1206 1205 
4 1183 1146 1147 1206 
4 1085 1184 1207 1084 
4 1184 1114 1208 1207 
4 1115 1116 1210 1209 
4 1116 1117 1211 1210 
4 1117 1118 1212 1211 
4 1118 1119 1213 1212 
4 1119 1120 1214 1213 
4 1120 1121 1215 1214 
4 1121 1122 1216 1215 
4 1122 1123 1217 1216 
4 1123 1124 1218 1217 
4 1124 1125 1219 1218 
4 1125 1126 1220 1219 
4 1214 1215 1221 1213 
4 1215 1216 1222 1221 
4 1216 1217 1223 1222 
4 1217 1218 1224 1223 
4 1218 1219 1225 1224 
4 1219 1220 1226 1225 
4 1220 1228 1227 1226 
4 1220 1126 1229 1228 
4 1126 1127 1230 1229 
4 1127 1128 1231 1230 
4 1128 1129 1232 1231 
4 1129 1130 1233 1232 
4 1131 1132 1235 1234 
4 1132 1133 1236 1235 
4 1133 1134 1237 1236 
4 1134 1135 1238 1237 
4 1135 1136 1137 1238 
4 1137 1138 1239 1238 
4 1138 1139 1240 1239 
4 1147 1148 1241 1206 
4 1148 1149 1242 1241 
4 1149 1150 1243 1242 
4 1150 1151 1244 1243 
4 1151 1152 1245 1244 
4 1152 1153 1246 1245 
4 1153 1154 1247 1246 
4 1154 1155 1248 1247 
4 1155 1156 1249 1248 
4 1156 1157 1250 1249 
4 1157 1158 1251 1250 
4 1158 1159 1252 1251 
4 1159 1160 1253 1252 
4 1160 1161 1254 1253 
4 1161 1162 1255 1254 
4 1162 1163 1256 1255 
4 1163 1164 1257 1256 
4 1164 1165 1258 1257 
4 1165 1166 1259 1258 
4 1166 1167 1260 1259 
4 1167 1168 1261 1260 
4 1168 1169 1262 1261 
4 1169 1170 1263 1262 
4 1170 1171 1264 1263 
4 1171 1172 1265 1264 
4 1172 1173 1266 1265 
4 1173 1174 1267 1266 
4 1174 1175 1268 1267 
4 1175 1176 1269 1268 
4 1176 1177 1270 1269 
4 1177 1178 1271 1270 
4 1178 1179 1272 1271 
4 1179 1072 1073 1272 
4 1073 1074 1273 1272 
4 1074 1075 1274 1273 
4 1075 1076 1275 1274 
4 1076 1077 1276 1275 
4 1077 1078 1277 1276 
4 1078 1079 1278 1277 
4 1079 1080 1279 1278 
4 1080 1081 1280 1279 
4 1081 1082 1281 1280 
4 1082 1083 1282 1281 
4 1083 1084 1207 1282 
4 1238 1239 1283 1237 
4 1239 1240 1284 1283 
4 1240 1286 1285 1284 
4 1240 1139 1287 1286 
4 1139 1140 1288 1287 
4 1140 1141 1289 1288 
4 1130 1131 1234 1290 
4 1233 1130 1290 1291 
4 1141 1142 1187 1289 
4 1287 1188 1285 1286 
4 1188 1189 1292 1285 
4 1189 1190 1293 1292 
4 1190 1191 1294 1293 
4 1191 1192 1295 1294 
4 1192 1193 1296 1295 
4 1193 1194 1297 1296 
4 1194 1299 1298 1297 
4 1194 1195 1300 1299 
4 1195 1196 1301 1300 
4 1196 1197 1302 1301 
4 1197 1198 1303 1302 
4 1198 1199 1304 1303 
4 1199 1200 1305 1304 
4 1200 1201 1306 1305 
4 1201 1202 1307 1306 
4 1202 1203 1308 1307 
4 1203 1204 1309 1308 
4 1204 1205 1310 1309 
4 1205 1206 1241 1310 
4 1142 1143 1186 1187 
4 1186 1143 1516 1185 
4 1241 1242 1311 1310 
4 1242 1243 1312 1311 
4 1243 1244 1313 1312 
4 1244 1245 1314 1313 
4 1245 1246 1315 1314 
4 1246 1247 1316 1315 
4 1247 1248 1317 1316 
4 1248 1249 1318 1317 
4 1249 1250 1319 1318 
4 1250 1251 1320 1319 
4 1251 1252 1321 1320 
4 1252 1253 1322 1321 
4 1253 1254 1323 1322 
4 1254 1255 1324 1323 
4 1255 1256 1325 1324 
4 1256 1257 1326 1325 
4 1257 1258 1327 1326 
4 1258 1259 1328 1327 
4 1259 1260 1329 1328 
4 1260 1261 1330 1329 
4 1261 1262 1331 1330 
4 1262 1263 1332 1331 
4 1263 1264 1333 1332 
4 1264 1265 1334 1333 
4 1265 1266 1335 1334 
4 1266 1267 1336 1335 
4 1267 1268 1337 1336 
4 1268 1269 1338 1337 
4 1269 1270 1339 1338 
4 1270 1271 1340 1339 
4 1271 1272 1273 1340 
4 1273 1274 1341 1340 
4 1274 1275 1342 1341 
4 1275 1276 1343 1342 
4 1276 1277 1344 1343 
4 1277 1278 1345 1344 
4 1278 1279 1346 1345 
4 1279 1280 1347 1346 
4 1280 1281 1348 1347 
4 1281 1282 1349 1348 
4 1282 1207 1208 1349 
4 1285 1292 1350 1284 
4 1292 1293 1351 1350 
4 1293 1294 1352 1351 
4 1294 1295 1353 1352 
4 1295 1296 1354 1353 
4 1296 1297 1355 1354 
4 1297 1298 1356 1355 
4 1298 1358 1357 1356 
4 1299 1300 1358 1298 
4 1300 1301 1359 1358 
4 1301 1302 1360 1359 
4 1302 1303 1361 1360 
4 1303 1304 1362 1361 
4 1304 1305 1363 1362 
4 1306 1307 1363 1305 
4 1307 1308 1364 1363 
4 1308 1309 1365 1364 
4 1309 1310 1311 1365 
4 1340 1341 1366 1339 
4 1341 1342 1367 1366 
4 1342 1343 1368 1367 
4 1343 1344 1369 1368 
4 1344 1345 1370 1369 
4 1345 1346 1371 1370 
4 1346 1347 1372 1371 
4 1347 1348 1373 1372 
4 1348 1349 1374 1373 
4 1374 1209 1375 1373 
4 1209 1210 1376 1375 
4 1210 1211 1377 1376 
4 1211 1212 1378 1377 
4 1212 1213 1379 1378 
4 1213 1221 1380 1379 
4 1221 1222 1381 1380 
4 1222 1223 1382 1381 
4 1223 1224 1383 1382 
4 1224 1225 1384 1383 
4 1225 1226 1385 1384 
4 1226 1227 1386 1385 
4 1227 1388 1387 1386 
4 1227 1228 1389 1388 
4 1228 1229 1390 1389 
4 1229 1230 1391 1390 
4 1230 1231 1392 1391 
4 1231 1232 1393 1392 
4 1232 1233 1394 1393 
4 1233 1291 1395 1394 
4 1291 1397 1396 1395 
4 1291 1290 1398 1397 
4 1290 1234 1399 1398 
4 1234 1235 1400 1399 
4 1235 1236 1401 1400 
4 1236 1237 1283 1401 
4 1311 1312 1402 1365 
4 1312 1313 1403 1402 
4 1313 1314 1404 1403 
4 1314 1315 1405 1404 
4 1315 1316 1406 1405 
4 1316 1317 1407 1406 
4 1317 1318 1408 1407 
4 1318 1319 1409 1408 
4 1319 1320 1410 1409 
4 1320 1321 1411 1410 
4 1321 1322 1412 1411 
4 1322 1323 1413 1412 
4 1323 1324 1414 1413 
4 1324 1325 1415 1414 
4 1325 1326 1416 1415 
4 1326 1327 1417 1416 
4 1327 1328 1418 1417 
4 1328 1329 1419 1418 
4 1329 1330 1420 1419 
4 1330 1331 1421 1420 
4 1331 1332 1422 1421 
4 1332 1333 1423 1422 
4 1333 1334 1424 1423 
4 1334 1335 1425 1424 
4 1335 1336 1426 1425 
4 1336 1337 1427 1426 
4 1337 1338 1428 1427 
4 1338 1339 1366 1428 
4 1399 1400 1429 1398 
4 1400 1401 1455 1429 
4 1401 1283 1454 1455 
4 1283 1284 1350 1454 
4 1365 1402 1470 1364 
4 1402 1403 1469 1470 
4 1403 1404 1468 1469 
4 1404 1405 1467 1468 
4 1405 1406 1430 1467 
4 1406 1407 1431 1430 
4 1407 1408 1432 1431 
4 1408 1409 1433 1432 
4 1409 1410 1434 1433 
4 1410 1411 1494 1434 
4 1411 1412 1493 1494 
4 1412 1413 1435 1493 
4 1413 1414 1436 1435 
4 1414 1415 1437 1436 
4 1415 1416 1438 1437 
4 1416 1417 1463 1438 
4 1417 1418 1462 1463 
4 1418 1419 1439 1462 
4 1419 1420 1440 1439 
4 1420 1421 1441 1440 
4 1421 1422 1442 1441 
4 1422 1423 1443 1442 
4 1423 1424 1444 1443 
4 1424 1425 1445 1444 
4 1425 1426 1446 1445 
4 1426 1427 1447 1446 
4 1427 1428 1448 1447 
4 1428 1366 1367 1448 
4 1367 1368 1449 1448 
4 1368 1369 1450 1449 
4 1369 1370 1451 1450 
4 1370 1371 1452 1451 
4 1371 1372 1453 1452 
4 1372 1373 1375 1453 
4 1350 1351 1352 1454 
4 1352 1353 1455 1454 
4 1375 1376 1456 1453 
4 1376 1377 1457 1456 
4 1377 1378 1458 1457 
4 1378 1379 1459 1458 
4 1379 1380 1460 1459 
4 1380 1381 1472 1460 
4 1381 1382 1471 1472 
4 1382 1383 1461 1471 
4 1383 1384 1462 1461 
4 1384 1385 1463 1462 
4 1353 1354 1429 1455 
4 1354 1355 1492 1429 
4 1355 1356 1491 1492 
4 1356 1357 1490 1491 
4 1357 1465 1464 1490 
4 1357 1358 1466 1465 
4 1358 1359 1467 1466 
4 1359 1360 1468 1467 
4 1360 1361 1469 1468 
4 1361 1362 1470 1469 
4 1362 1363 1364 1470 
4 1385 1386 1438 1463 
4 1386 1387 1437 1438 
4 1462 1439 1471 1461 
4 1439 1440 1472 1471 
4 1387 1388 1436 1437 
4 1440 1441 1473 1472 
4 1441 1442 1474 1473 
4 1442 1443 1475 1474 
4 1443 1444 1476 1475 
4 1444 1445 1477 1476 
4 1445 1446 1478 1477 
4 1446 1447 1479 1478 
4 1447 1448 1449 1479 
4 1388 1389 1435 1436 
4 1449 1450 1480 1479 
4 1450 1451 1481 1480 
4 1451 1452 1482 1481 
4 1452 1453 1456 1482 
4 1389 1390 1483 1435 
4 1390 1391 1484 1483 
4 1391 1392 1485 1484 
4 1392 1393 1486 1485 
4 1393 1394 1487 1486 
4 1394 1395 1488 1487 
4 1395 1396 1489 1488 
4 1396 1491 1490 1489 
4 1396 1397 1492 1491 
4 1397 1398 1429 1492 
4 1435 1483 1484 1493 
4 1484 1485 1494 1493 
4 1485 1486 1495 1494 
4 1486 1487 1496 1495 
4 1487 1488 1497 1496 
4 1488 1489 1498 1497 
4 1489 1490 1464 1498 
4 1494 1495 1499 1434 
4 1495 1496 1500 1499 
4 1496 1497 1503 1500 
4 1497 1498 1502 1503 
4 1464 1465 1502 1498 
4 1465 1466 1501 1502 
4 1432 1433 1505 1504 
4 1434 1499 1505 1433 
4 1499 1500 1504 1505 
4 1456 1457 1509 1482 
4 1457 1458 1506 1509 
4 1458 1459 1507 1506 
4 1459 1460 1508 1507 
4 1460 1472 1473 1508 
4 1473 1474 1507 1508 
4 1474 1475 1506 1507 
4 1475 1476 1509 1506 
4 1476 1477 1510 1509 
4 1477 1478 1511 1510 
4 1478 1479 1480 1511 
4 1480 1481 1510 1511 
4 1481 1482 1509 1510 
4 385 248 249 250 
4 532 679 531 384 
4 381 382 531 530 
4 382 383 384 531 
4 807 1512 1030 971 
4 1512 1513 1029 1030 
4 1513 808 972 1029 
4 1512 807 790 791 
4 1513 1512 791 792 
4 808 1513 792 809 
4 1110 941 1515 1514 
4 1514 1515 644 942 
4 1145 1516 1144 1087 
4 1145 1087 946 947 
4 1518 1115 1209 1374 
4 1349 1208 1518 1374 
4 1114 1071 970 971 
4 1518 1208 1114 971 
4 1516 1143 1517 1144 
4 1185 1088 1089 1090 
4 1432 1504 1519 1431 
4 1504 1500 1503 1519 
4 1519 1503 1502 1501 
4 1431 1519 1501 1430 
4 1467 1430 1501 1466 
4 1111 1517 995 996 
4 1517 1143 1142 995 
4 948 949 1089 1088 
4 949 950 951 1089 
CELL_TYPES 8283
9
9
9
9
9
9
9
9
9
9
9
9
9
9
9
9
9
9
9
9
9
9
9
9
9
9
9
9
9
9
9
9
9
9
9
9
9
9
9
9
9
9
9
9
9
9
9
9
9
9
9
9
9
9
9
9
9
9
9
9
9
9
9
9
9
9
9
9
9
9
9
9
9
9
9
9
9
9
9
9
9
9
9
9
9
9
9
9
9
9
9
9
9
9
9
9
9
9
9
9
9
9
9
9
9
9
9
9
9
9
9
9
9
9
9
9
9
9
9
9
9
9
9
9
9
9
9
9
9
9
9
9
9
9
9
9
9
9
9
9
9
9
9
9
9
9
9
9
9
9
9
9
9
9
9
9
9
9
9
9
9
9
9
9
9
9
9
9
9
9
9
9
9
9
9
9
9
9
9
9
9
9
9
9
9
9
9
9
9
9
9
9
9
9
9
9
9
9
9
9
9
9
9
9
9
9
9
9
9
9
9
9
9
9
9
9
9
9
9
9
9
9
9
9
9
9
9
9
9
9
9
9
9
9
9
9
9
9
9
9
9
9
9
9
9
9
9
9
9
9
9
9
9
9
9
9
9
9
9
9
9
9
9
9
9
9
9
9
9
9
9
9
9
9
9
9
9
9
9
9
9
9
9
9
9
9
9
9
9
9
9
9
9
9
9
9
9
9
9
9
9
9
9
9
9
9
9
9
9
9
9
9
9
9
9
9
9
9
9
9
9
9
9
9
9
9
9
9
9
9
9
9
9
9
9
9
9
9
9
9
9
9
9
9
9
9
9
9
9
9
9
9
9
9
9
9
9
9
9
9
9
9
9
9
9
9
9
9
9
9
9
9
9
9
9
9
9
9
9
9
9
9
9
9
9
9
9
9
9
9
9
9
9
9
9
9
9
9
9
9
9
9
9
9
9
9
9
9
9
9
9
9
9
9
9
9
9
9
9
9
9
9
9
9
9
9
9
9
9
9
9
9
9
9
9
9
9
9
9
9
9
9
9
9
9
9
9
9
9
9
9
9
9
9
9
9
9
9
9
9
9
9
9
9
9
9
9
9
9
9
9
9
9
9
9
9
9
9
9
9
9
9
9
9
9
9
9
9
9
9
9
9
9
9
9
9
9
9
9
9
9
9
9
9
9
9
9
9
9
9
9
9
9
9
9
9
9
9
9
9
9
9
9
9
9
9
9
9
9
9
9
9
9
9
9
9
9
9
9
9
9
9
9
9
9
9
9
9
9
9
9
9
9
9
9
9
9
9
9
9
9
9
9
9
9
9
9
9
9
9
9
9
9
9
9
9
9
9
9
9
9
9
9
9
9
9
9
9
9
9
9
9
9
9
9
9
9
9
9
9
9
9
9
9
9
9
9
9
9
9
9
9
9
9
9
9
9
9
9
9
9
9
9
9
9
9
9
9
9
9
9
9
9
9
9
9
9
9
9
9
9
9
9
9
9
9
9
9
9
9
9
9
9
9
9
9
9
9
9
9
9
9
9
9
9
9
9
9
9
9
9
9
9
9
9
9
9
9
9
9
9
9
9
9
9
9
9
9
9
9
9
9
9
9
9
9
9
9
9
9
9
9
9
9
9
9
9
9
9
9
9
9
9
9
9
9
9
9
9
9
9
9
9
9
9
9
9
9
9
9
9
9
9
9
9
9
9
9
9
9
9
9
9
9
9
9
9
9
9
9
9
9
9
9
9
9
9
9
9
9
9
9
9
9
9
9
9
9
9
9
9
9
9
9
9
9
9
9
9
9
9
9
9
9
9
9
9
9
9
9
9
9
9
9
9
9
9
9
9
9
9
9
9
9
9
9
9
9
9
9
9
9
9
9
9
9
9
9
9
9
9
9
9
9
9
9
9
9
9
9
9
9
9
9
9
9
9
9
9
9
9
9
9
9
9
9
9
9
9
9
9
9
9
9
9
9
9
9
9
9
9
9
9
9
9
9
9
9
9
9
9
9
9
9
9
9
9
9
9
9
9
9
9
9
9
9
9
9
9
9
9
9
9
9
9
9
9
9
9
9
9
9
9
9
9
9
9
9
9
9
9
9
9
9
9
9
9
9
9
9
9
9
9
9
9
9
9
9
9
9
9
9
9
9
9
9
9
9
9
9
9
9
9
9
9
9
9
9
9
9
9
9
9
9
9
9
9
9
9
9
9
9
9
9
9
9
9
9
9
9
9
9
9
9
9
9
9
9
9
9
9
9
9
9
9
9
9
9
9
9
9
9
9
9
9
9
9
9
9
9
9
9
9
9
9
9
9
9
9
9
9
9
9
9
9
9
9
9
9
9
9
9
9
9
9
9
9
9
9
9
9
9
9
9
9
9
9
9
9
9
9
9
9
9
9
9
9
9
9
9
9
9
9
9
9
9
9
9
9
9
9
9
9
9
9
9
9
9
9
9
9
9
9
9
9
9
9
9
9
9
9
9
9
9
9
9
9
9
9
9
9
9
9
9
9
9
9
9
9
9
9
9
9
9
9
9
9
9
9
9
9
9
9
9
9
9
9
9
9
9
9
9
9
9
9
9
9
9
9
9
9
9
9
9
9
9
9
9
9
9
9
9
9
9
9
9
9
9
9
9
9
9
9
9
9
9
9
9
9
9
9
9
9
9
9
9
9
9
9
9
9
9
9
9
9
9
9
9
9
9
9
9
9
9
9
9
9
9
9
9
9
9
9
9
9
9
9
9
9
9
9
9
9
9
9
9
9
9
9
9
9
9
9
9
9
9
9
9
9
9
9
9
9
9
9
9
9
9
9
9
9
9
9
9
9
9
9
9
9
9
9
9
9
9
9
9
9
9
9
9
9
9
9
9
9
9
9
9
9
9
9
9
9
9
9
9
9
9
9
9
9
9
9
9
9
9
9
9
9
9
9
9
9
9
9
9
9
9
9
9
9
9
9
9
9
9
9
9
9
9
9
9
9
9
9
9
9
9
9
9
9
9
9
9
9
9
9
9
9
9
9
9
9
9
9
9
9
9
9
9
9
9
9
9
9
9
9
9
9
9
9
9
9
9
9
9
9
9
9
9
9
9
9
9
9
9
9
9
9
9
9
9
9
9
9
9
9
9
9
9
9
9
9
9
9
9
9
9
9
9
9
9
9
9
9
9
9
9
9
9
9
9
9
9
9
9
9
9
9
9
9
9
9
9
9
9
9
9
9
9
9
9
9
9
9
9
9
9
9
9
9
9
9
9
9
9
9
9
9
9
9
9
9
9
9
9
9
9
9
9
9
9
9
9
9
9
9
9
9
9
9
9
9
9
9
9
9
9
9
9
9
9
9
9
9
9
9
9
9
9
9
9
9
9
9
9
9
9
9
9
9
9
9
9
9
9
9
9
9
9
9
9
9
9
9
9
9
9
9
9
9
9
9
9
9
9
9
9
9
9
9
9
9
9
9
9
9
9
9
9
9
9
9
9
9
9
9
9
9
9
9
9
9
9
9
9
9
9
9
9
9
9
9
9
9
9
9
9
9
9
9
9
9
9
9
9
9
9
9
9
9
9
9
9
9
9
9
9
9
9
9
9
9
9
9
9
9
9
9
9
9
9
9
9
9
9
9
9
9
9
9
9
9
9
9
9
9
9
9
9
9
9
9
9
9
9
9
9
9
9
9
9
9
9
9
9
9
9
9
9
9
9
9
9
9
9
9
9
9
9
9
9
9
9
9
9
9
9
9
9
9
9
9
9
9
9
9
9
9
9
9
9
9
9
9
9
9
9
9
9
9
9
9
9
9
9
9
9
9
9
9
9
9
9
9
9
9
9
9
9
9
9
9
9
9
9
9
9
9
9
9
9
9
9
9
9
9
9
9
9
9
9
9
9
9
9
9
9
9
9
9
9
9
9
9
9
9
9
9
9
9
9
9
9
9
9
9
9
9
9
9
9
9
9
9
9
9
9
9
9
9
9
9
9
9
9
9
9
9
9
9
9
9
9
9
9
9
9
9
9
9
9
9
9
9
9
9
9
9
9
9
9
9
9
9
9
9
9
9
9
9
9
9
9
9
9
9
9
9
9
9
9
9
9
9
9
9
9
9
9
9
9
9
9
9
9
9
9
9
9
9
9
9
9
9
9
9
9
9
9
9
9
9
9
9
9
9
9
9
9
9
9
9
9
9
9
9
9
9
9
9
9
9
9
9
9
9
9
9
9
9
9
9
9
9
9
9
9
9
9
9
9
9
9
9
9
9
9
9
9
9
9
9
9
9
9
9
9
9
9
9
9
9
9
9
9
9
9
9
9
9
9
9
9
9
9
9
9
9
9
9
9
9
9
9
9
9
9
9
9
9
9
9
9
9
9
9
9
9
9
9
9
9
9
9
9
9
9
9
9
9
9
9
9
9
9
9
9
9
9
9
9
9
9
9
9
9
9
9
9
9
9
9
9
9
9
9
9
9
9
9
9
9
9
9
9
9
9
9
9
9
9
9
9
9
9
9
9
9
9
9
9
9
9
9
9
9
9
9
9
9
9
9
9
9
9
9
9
9
9
9
9
9
9
9
9
9
9
9
9
9
9
9
9
9
9
9
9
9
9
9
9
9
9
9
9
9
9
9
9
9
9
9
9
9
9
9
9
9
9
9
9
9
9
9
9
9
9
9
9
9
9
9
9
9
9
9
9
9
9
9
9
9
9
9
9
9
9
9
9
9
9
9
9
9
9
9
9
9
9
9
9
9
9
9
9
9
9
9
9
9
9
9
9
9
9
9
9
9
9
9
9
9
9
9
9
9
9
9
9
9
9
9
9
9
9
9
9
9
9
9
9
9
9
9
9
9
9
9
9
9
9
9
9
9
9
9
9
9
9
9
9
9
9
9
9
9
9
9
9
9
9
9
9
9
9
9
9
9
9
9
9
9
9
9
9
9
9
9
9
9
9
9
9
9
9
9
9
9
9
9
9
9
9
9
9
9
9
9
9
9
9
9
9
9
9
9
9
9
9
9
9
9
9
9
9
9
9
9
9
9
9
9
9
9
9
9
9
9
9
9
9
9
9
9
9
9
9
9
9
9
9
9
9
9
9
9
9
9
9
9
9
9
9
9
9
9
9
9
9
9
9
9
9
9
9
9
9
9
9
9
9
9
9
9
9
9
9
9
9
9
9
9
9
9
9
9
9
9
9
9
9
9
9
9
9
9
9
9
9
9
9
9
9
9
9
9
9
9
9
9
9
9
9
9
9
9
9
9
9
9
9
9
9
9
9
9
9
9
9
9
9
9
9
9
9
9
9
9
9
9
9
9
9
9
9
9
9
9
9
9
9
9
9
9
9
9
9
9
9
9
9
9
9
9
9
9
9
9
9
9
9
9
9
9
9
9
9
9
9
9
9
9
9
9
9
9
9
9
9
9
9
9
9
9
9
9
9
9
9
9
9
9
9
9
9
9
9
9
9
9
9
9
9
9
9
9
9
9
9
9
9
9
9
9
9
9
9
9
9
9
9
9
9
9
9
9
9
9
9
9
9
9
9
9
9
9
9
9
9
9
9
9
9
9
9
9
9
9
9
9
9
9
9
9
9
9
9
9
9
9
9
9
9
9
9
9
9
9
9
9
9
9
9
9
9
9
9
9
9
9
9
9
9
9
9
9
9
9
9
9
9
9
9
9
9
9
9
9
9
9
9
9
9
9
9
9
9
9
9
9
9
9
9
9
9
9
9
9
9
9
9
9
9
9
9
9
9
9
9
9
9
9
9
9
9
9
9
9
9
9
9
9
9
9
9
9
9
9
9
9
9
9
9
9
9
9
9
9
9
9
9
9
9
9
9
9
9
9
9
9
9
9
9
9
9
9
9
9
9
9
9
9
9
9
9
9
9
9
9
9
9
9
9
9
9
9
9
9
9
9
9
9
9
9
9
9
9
9
9
9
9
9
9
9
9
9
9
9
9
9
9
9
9
9
9
9
9
9
9
9
9
9
9
9
9
9
9
9
9
9
9
9
9
9
9
9
9
9
9
9
9
9
9
9
9
9
9
9
9
9
9
9
9
9
9
9
9
9
9
9
9
9
9
9
9
9
9
9
9
9
9
9
9
9
9
9
9
9
9
9
9
9
9
9
9
9
9
9
9
9
9
9
9
9
9
9
9
9
9
9
9
9
9
9
9
9
9
9
9
9
9
9
9
9
9
9
9
9
9
9
9
9
9
9
9
9
9
9
9
9
9
9
9
9
9
9
9
9
9
9
9
9
9
9
9
9
9
9
9
9
9
9
9
9
9
9
9
9
9
9
9
9
9
9
9
9
9
9
9
9
9
9
9
9
9
9
9
9
9
9
9
9
9
9
9
9
9
9
9
9
9
9
9
9
9
9
9
9
9
9
9
9
9
9
9
9
9
9
9
9
9
9
9
9
9
9
9
9
9
9
9
9
9
9
9
9
9
9
9
9
9
9
9
9
9
9
9
9
9
9
9
9
9
9
9
9
9
9
9
9
9
9
9
9
9
9
9
9
9
9
9
9
9
9
9
9
9
9
9
9
9
9
9
9
9
9
9
9
9
9
9
9
9
9
9
9
9
9
9
9
9
9
9
9
9
9
9
9
9
9
9
9
9
9
9
9
9
9
9
9
9
9
9
9
9
9
9
9
9
9
9
9
9
9
9
9
9
9
9
9
9
9
9
9
9
9
9
9
9
9
9
9
9
9
9
9
9
9
9
9
9
9
9
9
9
9
9
9
9
9
9
9
9
9
9
9
9
9
9
9
9
9
9
9
9
9
9
9
9
9
9
9
9
9
9
9
9
9
9
9
9
9
9
9
9
9
9
9
9
9
9
9
9
9
9
9
9
9
9
9
9
9
9
9
9
9
9
9
9
9
9
9
9
9
9
9
9
9
9
9
9
9
9
9
9
9
9
9
9
9
9
9
9
9
9
9
9
9
9
9
9
9
9
9
9
9
9
9
9
9
9
9
9
9
9
9
9
9
9
9
9
9
9
9
9
9
9
9
9
9
9
9
9
9
9
9
9
9
9
9
9
9
9
9
9
9
9
9
9
9
9
9
9
9
9
9
9
9
9
9
9
9
9
9
9
9
9
9
9
9
9
9
9
9
9
9
9
9
9
9
9
9
9
9
9
9
9
9
9
9
9
9
9
9
9
9
9
9
9
9
9
9
9
9
9
9
9
9
9
9
9
9
9
9
9
9
9
9
9
9
9
9
9
9
9
9
9
9
9
9
9
9
9
9
9
9
9
9
9
9
9
9
9
9
9
9
9
9
9
9
9
9
9
9
9
9
9
9
9
9
9
9
9
9
9
9
9
9
9
9
9
9
9
9
9
9
9
9
9
9
9
9
9
9
9
9
9
9
9
9
9
9
9
9
9
9
9
9
9
9
9
9
9
9
9
9
9
9
9
9
9
9
9
9
9
9
9
9
9
9
9
9
9
9
9
9
9
9
9
9
9
9
9
9
9
9
9
9
9
9
9
9
9
9
9
9
9
9
9
9
9
9
9
9
9
9
9
9
9
9
9
9
9
9
9
9
9
9
9
9
9
9
9
9
9
9
9
9
9
9
9
9
9
9
9
9
9
9
9
9
9
9
9
9
9
9
9
9
9
9
9
9
9
9
9
9
9
9
9
9
9
9
9
9
9
9
9
9
9
9
9
9
9
9
9
9
9
9
9
9
9
9
9
9
9
9
9
9
9
9
9
9
9
9
9
9
9
9
9
9
9
9
9
9
9
9
9
9
9
9
9
9
9
9
9
9
9
9
9
9
9
9
9
9
9
9
9
9
9
9
9
9
9
9
9
9
9
9
9
9
9
9
9
9
9
9
9
9
9
9
9
9
9
9
9
9
9
9
9
9
9
9
9
9
9
9
9
9
9
9
9
9
9
9
9
9
9
9
9
9
9
9
9
9
9
9
9
9
9
9
9
9
9
9
9
9
9
9
9
9
9
9
9
9
9
9
9
9
9
9
9
9
9
9
9
9
9
9
9
9
9
9
9
9
9
9
9
9
9
9
9
9
9
9
9
9
9
9
9
9
9
9
9
9
9
9
9
9
9
9
9
9
9
9
9
9
9
9
9
9
9
9
9
9
9
9
9
9
9
9
9
9
9
9
9
9
9
9
9
9
9
9
9
9
9
9
9
9
9
9
9
9
9
9
9
9
9
9
9
9
9
9
9
9
9
9
9
9
9
9
9
9
9
9
9
9
9
9
9
9
9
9
9
9
9
9
9
9
9
9
9
9
9
9
9
9
9
9
9
9
9
9
9
9
9
9
9
9
9
9
9
9
9
9
9
9
9
9
9
9
9
9
9
9
9
9
9
9
9
9
9
9
9
9
9
9
9
9
9
9
9
9
9
9
9
9
9
9
9
9
9
9
9
9
9
9
9
9
9
9
9
9
9
9
9
9
9
9
9
9
9
9
9
9
9
9
9
9
9
9
9
9
9
9
9
9
9
9
9
9
9
9
9
9
9
9
9
9
9
9
9
9
9
9
9
9
9
9
9
9
9
9
9
9
9
9
9
9
9
9
9
9
9
9
9
9
9
9
9
9
9
9
9
9
9
9
9
9
9
9
9
9
9
9
9
9
9
9
9
9
9
9
9
9
9
9
9
9
9
9
9
9
9
9
9
9
9
9
9
9
9
9
9
9
9
9
9
9
9
9
9
9
9
9
9
9
9
9
9
9
9
9
9
9
9
9
9
9
9
9
9
9
9
9
9
9
9
9
9
9
9
9
9
9
9
9
9
9
9
9
9
9
9
9
9
9
9
9
9
9
9
9
9
9
9
9
9
9
9
9
9
9
9
9
9
9
9
9
9
9
9
9
9
9
9
9
9
9
9
9
9
9
9
9
9
9
9
9
9
9
9
9
9
9
9
9
9
9
9
9
9
9
9
9
9
9
9
9
9
9
9
9
9
9
9
9
9
9
9
9
9
9
9
9
9
9
9
9
9
9
9
9
9
9
9
9
9
9
9
9
9
9
9
9
9
9
9
9
9
9
9
9
9
9
9
9
9
9
9
9
9
9
9
9
9
9
9
9
9
9
9
9
9
9
9
9
9
9
9
9
9
9
9
9
9
9
9
9
9
9
9
9
9
9
9
9
9
9
9
9
9
9
9
9
9
9
9
9
9
9
9
9
9
9
9
9
9
9
9
9
9
9
9
9
9
9
9
9
9
9
9
9
9
9
9
9
9
9
9
9
9
9
9
9
9
9
9
9
9
9
9
9
9
9
9
9
9
9
9
9
9
9
9
9
9
9
9
9
9
9
9
9
9
9
9
9
9
9
9
9
9
9
9
9
9
9
9
9
9
9
9
9
9
9
9
9
9
9
9
9
9
9
9
9
9
9
9
9
9
9
9
9
9
9
9
9
9
9
9
9
9
9
9
9
9
9
9
9
9
9
9
9
9
9
9
9
9
9
9
9
9
9
9
9
9
9
9
9
9
9
9
9
9
9
9
9
9
9
9
9
9
9
9
9
9
9
9
9
9
9
9
9
9
9
9
9
9
9
9
9
9
9
9
9
9
9
9
9
9
9
9
9
9
9
9
9
9
9
9
9
9
9
9
9
9
9
9
9
9
9
9
9
9
9
9
9
9
9
9
9
9
9
9
9
9
9
9
9
9
9
9
9
9
9
9
9
9
9
9
9
9
9
9
9
9
9
9
9
9
9
9
9
9
9
9
9
9
9
9
9
9
9
9
9
9
9
9
9
9
9
9
9
9
9
9
9
9
9
9
9
9
9
9
9
9
9
9
9
9
9
9
9
9
9
9
9
9
9
9
9
9
9
9
9
9
9
9
9
9
9
9
9
9
9
9
9
9
9
9
9
9
9
9
9
9
9
9
9
9
9
9
9
9
9
9
9
9
9
9
9
9
9
9
9
9
9
9
9
9
9
9
9
9
9
9
9
9
9
9
9
9
9
9
9
9
9
9
9
9
9
9
9
9
9
9
9
9
9
9
9
9
9
9
9
9
9
9
9
9
9
9
9
9
9
9
9
9
9
9
9
9
9
9
9
9
9
9
9
9
9
9
9
9
9
9
9
9
9
9
9
9
9
9
9
9
9
9
9
9
9
9
9
9
9
9
9
9
9
9
9
9
9
9
9
9
9
9
9
9
9
9
9
9
9
9
9
9
9
9
9
9
9
9
9
9
9
9
9
9
9
9
9
9
9
9
9
9
9
9
9
9
9
9
9
9
9
9
9
9
9
9
9
9
9
9
9
9
9
9
9
9
9
9
9
9
9
9
9
9
9
9
9
9
9
9
9
9
9
9
9
9
9
9
9
9
9
9
9
9
9
9
9
9
9
9
9
9
9
9
9
9
9
9
9
9
9
9
9
9
9
9
9
9
9
9
9
9
9
9
9
9
9
9
9
9
9
9
9
9
9
9
9
9
9
9
9
9
9
9
9
9
9
9
9
9
9
9
9
9
9
9
9
9
9
9
9
9
9
9
9
9
9
9
9
9
9
9
9
9
9
9
9
9
9
9
9
9
9
9
9
9
9
9
9
9
9
9
9
9
9
9
9
9
9
9
9
9
9
9
9
9
9
9
9
9
9
9
9
9
9
9
9
9
9
9
9
9
9
9
9
9
9
9
9
9
9
9
9
9
9
9
9
9
9
9
9
9
9
9
9
9
9
9
9
9
9
9
9
9
9
9
9
9
9
9
9
9
9
9
9
9
9
9
9
9
9
9
9
9
9
9
9
9
9
9
9
9
9
9
9
9
9
9
9
9
9
9
9
9
9
9
9
9
9
9
9
9
9
9
9
9
9
9
9
9
9
9
9
9
9
9
9
9
9
9
9
9
9
9
9
9
9
9
9
9
9
9
9
9
9
9
9
9
9
9
9
9
9
9
9
9
9
9
9
9
9
9
9
9
9
9
9
9
9
9
9
9
9
9
9
9
9
9
9
9
9
9
9
9
9
9
9
9
9
9
9
9
9
9
9
9
9
9
9
9
9
9
9
9
9
9
9
9
9
9
9
9
9
9
9
9
9
9
9
9
9
9
9
9
9
9
9
9
9
9
9
9
9
9
9
9
9
9
9
9
9
9
9
9
9
9
9
9
9
9
9
9
9
9
9
9
9
9
9
9
9
9
9
9
9
9
9
9
9
9
9
9
9
9
9
9
9
9
9
9
9
9
9
9
9
9
9
9
9
9
9
9
9
9
9
9
9
9
9
9
9
9
9
9
9
9
9
9
9
9
9
9
9
9
9
9
9
9
9
9
9
9
9
9
9
9
9
9
9
9
9
9
9
9
9
9
9
9
9
9
9
9
9
9
9
9
9
9
9
9
9
9
9
9
9
9
9
9
9
9
9
9
9
9
9
9
9
9
9
9
9
9
9
9
9
9
9
9
9
9
9
9
9
9
9
9
9
9
9
9
9
9
9
9
9
9
9
9
9
9
9
9
9
9
9
9
9
9
9
9
9
9
9
9
9
9
9
9
9
9
9
9
9
9
9
9
9
9
9
9
9
9
9
9
9
9
9
9
9
9
9
9
9
9
9
9
9
9
9
9
9
9
9
9
9
9
9
9
9
9
9
9
9
9
9
9
9
9
9
9
9
9
9
9
9
9
9
9
9
9
9
9
9
9
9
9
9
9
9
9
9
9
9
9
9
9
9
9
9
9
9
9
9
9
9
9
9
9
9
9
9
9
9
9
9
9
9
9
9
9
9
9
9
9
9
9
9
9
9
9
9
9
9
9
9
9
9
9
9
9
9
9
9
9
9
9
9
9
9
9
9
9
9
9
9
9
9
9
9
9
9
9
9
9
9
9
9
9
9
9
9
9
9
9
9
9
9
9
9
9
9
9
9
9
9
9
9
9
9
9
9
9
9
9
9
9
9
9
9
9
9
9
9
9
9
9
9
9
9
9
9
9
9
9
9
9
9
9
9
9
9
9
9
9
9
9
9
9
9
9
9
9
9
9
9
9
9
9
9
9
9
9
9
9
9
9
9
9
9
9
9
9
9
9
9
9
9
9
9
9
9
9
9
9
9
9
9
9
9
9
9
9
9
9
9
9
9
9
9
9
9
9
9
9
9
9
9
9
9
9
9
9
9
9
9
9
9
9
9
9
9
9
9
9
9
9
9
9
9
9
9
9
9
9
9
9
9
9
9
9
9
9
9
9
9
9
9
9
9
9
9
9
9
9
9
9
9
9
9
9
9
9
9
9
9
9
9
9
9
9
9
9
9
9
9
9
9
9
9
9
9
9
9
9
9
9
9
9
9
9
9
9
9
9
9
9
9
9
9
9
9
9
9
9
9
9
9
9
9
9
9
9
9
9
9
9
9
9
9
9
9
9
9
9
9
9
9
9
9
9
9
9
9
9
9
9
9
9
9
9
9
9
9
9
9
9
9
9
9
9
9
9
9
9
9
9
9
9
9
9
9
9
9
9
9
9
9
9
9
9
9
9
9
9
9
9
9
9
9
9
9
9
9
9
9
9
9
9
9
9
9
9
9
9
9
9
9
9
9
9
9
9
9
9
9
9
9
9
9
9
9
9
9
9
9
9
9
9
9
9
9
9
9
9
9
9
9
9
9
9
9
9
9
9
9
9
9
9
9
9
9
9
9
9
9
9
9
9
9
9
9
9
9
9
9
9
9
9
9
9
9
9
9
9
9
9
9
9
9
9
9
9
9
9
9
9
9
9
9
9
9
9
9
9
9
9
9
9
9
9
9
9
9
9
9
9
9
9
9
9
9
9
9
9
9
9
9
9
9
9
9
9
9
9
9
9
9
9
9
9
9
9
9
9
9
9
9
9
9
9
9
9
9
9
9
9
9
9
9
9
9
9
9
9
9
9
9
9
9
9
9
9
9
9
9
9
9
9
9
9
9
9
9
9
9
9
9
9
9
9
9
9
9
9
9
9
9
9
9
9
9
9
9
9
9
9
9
9
9
9
9
9
9
9
9
9
9
9
9
9
9
9
9
9
9
9
9
9
9
9
9
9
9
9
9
9
9
9
9
9
9
9
9
9
9
9
9
9
9
9
9
9
9
9
9
9
9
9
9
9
9
9
9
9
9
9
9
9
9
9
9
9
9
9
9
9
9
9
9
9
9
9
9
9
9
9
9
9
9
9
9
9
9
9
9
9
9
9
9
9
9
9
9
9
9
9
9
9
9
9
9
9
9
9
9
9
9
9
9
9
9
9
9
9
9
9
9
9
9
9
9
9
9
9
9
9
9
9
9
9
9
9
9
9
9
9
9
9
9
9
9
9
9
9
9
9
9
9
9
9
9
9
9
9
9
9
9
9
9
9
9
9
9
9
9
9
9
9
9
9
9
9
9
9
9
9
9
9
9
9
9
9
9
9
9
9
9
9
9
9
9
9
9
9
9
9
9
9
9
9
9
9
9
9
9
9
9
9
9
9
9
9
9
9
9
9
9
9
9
9
9
9
9
9
9
9
9
9
9
9
9
9
9
9
9
9
9
9
9
9
9
9
9
9
9
9
9
9
9
9
9
9
9
9
9
9
9
9
9
9
9
9
9
9
9
9
9
9
9
9
9
9
9
9
9
9
9
9
9
9
9
9
9
9
9
9
9
9
9
9
9
9
9
9
9
9
9
9
9
9
9
9
9
9
9
9
9
9
9
9
9
9
9
9
9
9
9
9
9
9
9
9
9
9
9
9
9
9
9
9
9
9
9
9
9
9
9
9
9
9
9
9
9
9
9
9
9
9
9
9
9
9
9
9
9
9
9
9
9
9
9
9
9
9
9
9
9
9
9
9
9
9
9
9
9
9
9
9
9
9
9
9
9
9
9
9
9
9
9
9
9
9
9
9
9
9
9
9
9
9
9
9
9
9
9
9
9
9
9
9
9
9
9
9
9
9
9
9
9
9
9
9
9
9
9
9
9
9
9
9
9
9
9
9
9
9
9
9
9
9
9
9
9
9
9
9
9
9
9
9
9
9
9
9
9
9
9
9
9
9
9
9
9
9
9
9
9
9
9
9
9
9
9
9
9
9
9
9
9
9
9
9
9
9
9
9
9
9
9
9
9
9
9
9
9
9
9
9
9
9
9
9
9
9
9
9
9
9
9
9
9
9
9
9
9
9
9
9
9
9
9
9
9
9
9
9
9
9
9
9
9
9
9
9
9
9
9
9
9
9
9
9
9
9
9
9
9
9
9
9
9
9
9
9
9
9
9
9
9
9
9
9
9
9
9
9
9
9
9
9
9
9
9
9
9
9
9
9
9
9
9
9
9
9
9
9
9
9
9
9
9
9
9
9
9
9
9
9
9
9
9
9
9
9
9
9
9
9
9
9
9
9
9
9
9
9
9
9
9
9
9
9
9
9
9
9
9
9
9
9
9
9
9
9
9
9
9
9
9
9
9
9
9
9
9
9
9
9
9
9
9
9
9
9
9
9
9
9
9
9
9
9
9
9
9
9
9
9
9
9
9
9
9
9
9
9
9
9
9
9
9
9
9
9
9
9
9
9
9
9
9
9
9
9
9
9
9
9
9
9
9
9
9
9
9
9
9
9
9
9
9
9
9
9
9
9
9
9
9
9
9
9
9
9
9
9
9
9
9
9
9
9
9
9
9
9
9
9
9
9
9
9
9
9
9
9
9
9
9
9
9
9
9
9
9
9
9
9
9
9
9
9
9
9
9
9
9
9
9
9
9
9
9
9
9
9
9
9
9
9
9
9
9
9
9
9
9
9
9
9
9
9
9
9
9
9
9
9
9
9
9
9
9
9
9
9
9
9
9
9
9
9
9
9
9
9
9
9
9
9
9
9
9
9
9
9
9
9
9
9
9
9
9
9
9
9
9
9
9
9
9
9
9
9
9
9
9
9
9
9
9
9
9
9
9
9
9
9
9
9
9
9
9
9
9
9
9
9
9
9
9
9
9
9
9
9
9
9
9
9
9
9
9
9
9
9
9
9
9
9
9
9
9
9
9
9
9
9
9
9
9
9
9
9
9
9
9
9
9
9
9
9
9
9
9
9
9
9
9
9
9
9
9
9
9
9
9
9
9
9
9
9
9
9
9
9
9
9
9
9
9
9
9
9
9
9
9
9
9
9
9
9
9
9
9
9
9
9
9
9
9
9
9
9
9
9
9
9
9
9
9
9
9
9
9
9
9
9
9
9
9
9
9
9
9
9
9
9
9
9
9
9
9
9
9
9
9
9
9
9
9
9
9
9
9
9
9
9
9
9
9
9
9
9
9
9
9
9
9
9
9
9
9
9
9
9
9
9
9
9
9
9
9
9
9
9
9
9
9
9
9
9
9
9
9
9
9
9
9
9
9
9
9
9
9
9
9
9
9
9
9
9
9
9
9
9
9
9
9
9
9
9
9
9
9
9
9
9
9
9
9
9
9
9
9
9
9
9
9
9
9
9
9
9
9
9
9
9
9
9
9
9
9
9
9
9
9
9
9
9
9
9
9
9
9
9
9
9
9
9
9
9
9
9
9
9
9
9
9
9
9
9
9
9
9
9
9
9
9
9
9
9
9
9
9
9
9
9
9
9
9
9
9
9
9
9
9
9
9
9
9
9
9
9
9
9
9
9
9
9
9
9
9
9
9
9
9
9
9
9
9
9
9
9
9
9
9
9
9
9
9
9
9
9
9
9
9
9
9
9
9
9
9
9
9
9
9
9
9
9
9
9
9
9
9
9
9
9
9
9
9
9
9
9
9
9
9
9
9
9
9
9
9
9
9
9
9
9
9
9
9
9
9
9
9
9
9
9
9
9
9
9
9
9
9
9
9
9
9
9
9
9
9
9
9
9
9
9
9
9
9
9
9
9
9
9
9
9
9
9
9
9
9
9
9
9
9
9
9
9
9
9
9
9
9
9
9
9
9
9
9
9
9
9
9
9
9
9
9
9
9
9
9
9
9
9
9
9
9
9
9
9
9
9
9
9
9
9
9
9
9
9
9
9
9
9
9
9
9
9
9
9
9
9
9
9
9
9
9
9
9
9
9
9
9
9
9
9
9
9
9
9
9
9
9
9
9
9
9
9
9
9
9
9
9
9
9
9
9
9
9
9
9
9
9
9
9
9
9
9
9
9
9
9
9
9
9
9
9
9
9
9
9
9
9
9
9
9
9
9
9
9
9
9
9
9
9
9
9
9
9
9
9
9
9
9
9
9
9
9
9
9
9
9
9
9
9
9
9
9
9
9
9
9
9
9
9
9
9
9
9
9
9
9
9
9
9
9
9
9
9
9
9
9
9
9
9
9
9
9
9
9
9
9
9
9
9
9
9
9
9
9
9
9
9
9
9
9
9
9
9
9
9
9
9
9
9
9
9
9
9
9
9
9
9
9
9
9
9
9
9
9
9
9
9
9
9
9
9
9
9
9
9
9
9
9
9
9
9
9
9
9
9
9
9
9
9
9
9
9
9
9
9
9
9
9
9
9
9
9
9
9
9
9
9
9
9
9
9
9
9
9
9
9
9
9
9
9
9
9
9
9
9
9
9
9
9
9
9
9
9
9
9
9
9
9
9
9
9
9
9
9
9
9
9
9
9
9
9
9
9
9
9
9
9
9
9
9
9
9
9
9
9
9
9
9
9
9
9
9
9
9
9
9
9
9
9
9
9
9
9
9
9
9
9
9
9
9
9
9
9
9
9
9
9
9
9
9
9
9
9
9
9
9
9
9
9
9
9
9
9
9
9
9
9
9
9
9
9
9
9
9
9
9
9
9
9
9
9
9
9
9
9
9
9
9
9
9
9
9
9
9
9
9
9
9
9
9
9
9
9
9
9
9
9
9
9
9
9
9
9
9
9
9
9
9
9
9
9
9
9
9
9
9
9
9
9
9
9
9
9
9
9
9
9
9
9
9
9
9
9
9
9
9
9
9
9
9
9
9
9
9
9
9
9
9
9
9
9
9
9
9
9
9
9
9
9
9
9
9
9
9
9
9
9
9
9
9
9
9
9
9
9
9
9
9
9
9
9
9
9
9
9
9
9
9
9
9
9
9
9
9
9
9
9
9
9
9
9
9
9
9
9
9
9
9
9
9
9
9
9
9
9
9
9
9
9
9
9
9
9
9
9
9
9
9
9
9
9
9
9
9
9
9
9
9
9
9
9
9
9
9
9
9
9
9
9
9
9
9
9
9
9
9
9
9
9
9
9
9
9
9
9
9
9
9
9
9
9
9
9
9
9
9
9
9
9
9
9
9
9
9
9
9
9
9
9
9
9
9
9
9
9
9
9
9
9
9
9
9
9
9
9
9
9
9
9
9
9
9
9
9
9
9
9
9
9
9
9
9
9
9
9
9
9
9
9
9
9
9
9
9
9
9
9
9
9
9
9
9
9
9
9
9
9
9
9
9
9
9
9
9
9
9
9
9
9
9
9
9
9
9
9
9
9
9
9
9
9
9
9
9
9
9
9
9
9
9
9
9
9
9
9
9
9
9
9
9
9
9
9
9
9
9
9
9
9
9
9
9
9
9
9
9
9
9
9
9
9
9
9
9
9
9
9
9
9
9
9
9
9
9
9
9
9
9
9
9
9
9
9
9
9
9
9
9
9
9
9
9
9
9
9
9
9
9
9
9
9
9
9
9
9
9
9
9
9
9
9
9
9
9
9
9
9
9
9
9
9
9
9
9
9
9
9
9
9
9
9
9
9
9
9
9
9
9
9
9
9
9
9
9
9
9
9
9
9
9
9
9
9
9
9
9
9
9
9
9
9
9
9
9
9
9
9
9
9
9
9
9
9
9
9
9
9
9
9
9
9
9
9
9
9
9
9
9
9
9
9
9
9
9
9
9
9
9
9
9
9
9
9
9
9
9
9
9
9
9
9
9
9
9
9
9
9
9
9
9
9
9
9
9
9
9
9
9
9
9
9
9
9
9
9
9
9
9
9
9
9
9
9
9
9
9
9
9
9
9
9
9
9
9
9
9
9
9
9
9
9
9
9
9
9
9
9
9
9
9
9
9
9
9
9
9
9
9
9
9
9
9
9
9
9
9
9
9
9
9
9
9
9
9
9
9
9
9
9
9
9
9
9
9
9
9
9
9
9
9
9
9
9
9
9
9
9
9
9
9
9
9
9
9
9
9
9
9
9
9
9
9
9
9
9
9
9
9
9
9
9
9
9
9
9
9
9
9
9
9
9
9
9
9
9
9
9
9
9
9
9
9
9
9
9
9
9
9
9
9
9
9
9
9
9
9
9
9
9
9
9
9
9
9
9
9
9
9
9
9
9
9
9
9
9
9
9
9
9
9
9
9
9
9
9
9
9
9
9
9
9
9
9
9
9
9
9
9
9
9
9
9
9
9
9
9
9
9
9
9
9
9
9
9
9
9
9
9
9
9
9
9
9
9
9
9
9
9
9
9
9
9
9
9
9
9
9
9
9
9
9
9
9
9
9
9
9
9
9
9
9
9
9
9
9
9
9
9
9
9
9
9
9
9
9
9
9
9
9
9
9
9
9
9
9
9
9
9
9
9
9
9
9
9
9
9
9
9
9
9
9
9
9
9
9
9
9
9
9
9
9
9
9
9
9
9
9
9
9
9
9
9
9
9
9
9
9
9
9
9
9
9
9
9
9
9
9
9
9
9
9
9
9
9
9
9
9
9
9
9
9
9
9
9
9
9
9
9
9
9
9
9
9
9
9
9
9
9
9
9
9
9
9
9
9
9
9
9
9
9
9
9
9
9
9
9
9
9
9
CELL_DATA 8283
SCALARS element_sets int 1
LOOKUP_TABLE default
2
2
2
2
2
2
2
2
2
2
2
2
2
2
2
2
2
2
2
2
2
2
2
2
2
2
2
2
2
2
2
2
2
2
2
2
2
2
2
2
2
2
2
2
2
2
2
2
2
2
2
2
2
2
2
2
2
2
2
2
2
2
2
2
2
2
2
2
2
2
2
2
2
2
2
2
2
2
2
2
2
2
2
2
2
2
2
2
2
2
2
2
2
2
2
2
2
2
2
2
2
2
2
2
2
2
2
2
2
2
2
2
2
2
2
2
2
2
2
2
2
2
2
2
2
2
2
2
2
2
2
2
2
2
2
2
2
2
2
2
2
2
2
2
2
2
2
2
2
2
2
2
2
2
2
2
2
2
2
2
2
2
2
2
2
2
2
2
2
2
2
2
2
2
2
2
2
2
2
2
2
2
2
2
2
2
2
2
2
2
2
2
2
2
2
2
2
2
2
2
2
2
2
2
2
2
2
2
2
2
2
2
2
2
2
2
2
2
2
2
2
2
2
2
2
2
2
2
2
2
2
2
2
2
2
2
2
2
2
2
2
2
2
2
2
2
2
2
2
2
2
2
2
2
2
2
2
2
2
2
2
2
2
2
2
2
2
2
2
2
2
2
2
2
2
2
2
2
2
2
2
2
2
2
2
2
2
2
2
2
2
2
2
2
2
2
2
2
2
2
2
2
2
2
2
2
2
2
2
2
2
2
2
2
2
2
2
2
2
2
2
2
2
2
2
2
2
2
2
2
2
2
2
2
2
2
2
2
2
2
2
2
2
2
2
2
2
2
2
2
2
2
2
2
2
2
2
2
2
2
2
2
2
2
2
2
2
2
2
2
2
2
2
2
2
2
2
2
2
2
2
2
2
2
2
2
2
2
2
2
2
2
2
2
2
2
2
2
2
2
2
2
2
2
2
2
2
2
2
2
2
2
2
2
2
2
2
2
2
2
2
2
2
2
2
2
2
2
2
2
2
2
2
2
2
2
2
2
2
2
2
2
2
2
2
2
2
2
2
2
2
2
2
2
2
2
2
2
2
2
2
2
2
2
2
2
2
2
2
2
2
2
2
2
2
2
2
2
2
2
2
2
2
2
2
2
2
2
2
2
2
2
2
2
2
2
2
2
2
2
2
2
2
2
2
2
2
2
2
2
2
2
2
2
2
2
2
2
2
2
2
2
2
2
2
2
2
2
2
2
2
2
2
2
2
2
2
2
2
2
2
2
2
2
2
2
2
2
2
2
2
2
2
2
2
2
2
2
2
2
2
2
2
2
2
2
2
2
2
2
2
2
2
2
2
2
2
2
2
2
2
2
2
2
2
2
2
2
2
2
2
2
2
2
2
2
2
2
2
2
2
2
2
2
2
2
2
2
2
2
2
2
2
2
2
2
2
2
2
2
2
2
2
2
2
2
2
2
2
2
2
2
2
2
2
2
2
2
2
2
2
2
2
2
2
2
2
2
2
2
2
2
2
2
2
2
2
2
2
2
2
2
2
2
2
2
2
2
2
2
2
2
2
2
2
2
2
2
2
2
2
2
2
2
2
2
2
2
2
2
2
2
2
2
2
2
2
2
2
2
2
2
2
2
2
2
2
2
2
2
2
2
2
2
2
2
2
2
2
2
2
2
2
2
2
2
2
2
2
2
2
2
2
2
2
2
2
2
2
2
2
2
2
2
2
2
2
2
2
2
2
2
2
2
2
2
2
2
2
2
2
2
2
2
2
2
2
2
2
2
2
2
2
2
2
2
2
2
2
2
2
2
2
2
2
2
2
2
2
2
2
2
2
2
2
2
2
2
2
2
2
2
2
2
2
2
2
2
2
2
2
2
2
2
2
2
2
2
2
2
2
2
2
2
2
2
2
2
2
2
2
2
2
2
2
2
2
2
2
2
2
2
2
2
2
2
2
2
2
2
2
2
2
2
2
2
2
2
2
2
2
2
2
2
2
2
2
2
2
2
2
2
2
2
2
2
2
2
2
2
2
2
2
2
2
2
2
2
2
2
2
2
2
2
2
2
2
2
2
2
2
2
2
2
2
2
2
2
2
2
2
2
2
2
2
2
2
2
2
2
2
2
2
2
2
2
2
2
2
2
2
2
2
2
2
2
2
2
2
2
2
2
2
2
2
2
2
2
2
2
2
2
2
2
2
2
2
2
2
2
2
2
2
2
2
2
2
2
2
2
2
2
2
2
2
2
2
2
2
2
2
2
2
2
2
2
2
2
2
2
2
2
2
2
2
2
2
2
2
2
2
2
2
2
2
2
2
2
2
2
2
2
2
2
2
2
2
2
2
2
2
2
2
2
2
2
2
2
2
2
2
2
2
2
2
2
2
2
2
2
2
2
2
2
2
2
2
2
2
2
2
2
2
2
2
2
2
2
2
2
2
2
2
2
2
2
2
2
2
2
2
2
2
2
2
2
2
2
2
2
2
2
2
2
2
2
2
2
2
2
2
2
2
2
2
2
2
2
2
2
2
2
2
2
2
2
2
2
2
2
2
2
2
2
2
2
2
2
2
2
2
2
2
2
2
2
2
2
2
2
2
2
2
2
2
2
2
2
2
2
2
2
2
2
2
2
2
2
2
2
2
2
2
2
2
2
2
2
2
2
2
2
2
2
2
2
2
2
2
2
2
2
2
2
2
2
2
2
2
2
2
2
2
2
2
2
2
2
2
2
2
2
2
2
2
2
2
2
2
2
2
2
2
2
2
2
2
2
2
2
2
2
2
2
2
2
2
2
2
2
2
2
2
2
2
2
2
2
2
2
2
2
2
2
2
2
2
2
2
2
2
2
2
2
2
2
2
2
2
2
2
2
2
2
2
2
2
2
2
2
2
2
2
2
2
2
2
2
2
2
2
2
2
2
2
2
2
2
2
2
2
2
2
2
2
2
2
2
2
2
2
2
2
2
2
2
2
2
2
2
2
2
2
2
2
2
2
2
2
2
2
2
2
2
2
2
2
2
2
2
2
2
2
2
2
2
2
2
2
2
2
2
2
2
2
2
2
2
2
2
2
2
2
2
2
2
2
2
2
2
2
2
2
2
2
2
2
2
2
2
2
2
2
2
2
2
2
2
2
2
2
2
2
2
2
2
2
2
2
2
2
2
2
2
2
2
2
2
2
2
2
2
2
2
2
2
2
2
2
2
2
2
2
2
2
2
2
2
2
2
2
2
2
2
2
2
2
2
2
2
2
2
2
2
2
2
2
2
2
2
2
2
2
2
2
2
2
2
2
2
2
2
2
2
2
2
2
2
2
2
2
2
2
2
2
2
2
2
2
2
2
2
2
2
2
2
2
2
2
2
2
2
2
2
2
2
2
2
2
2
2
2
2
2
2
2
2
2
2
2
2
2
2
2
2
2
2
2
2
2
2
2
2
2
2
2
2
2
2
2
2
2
2
2
2
2
2
2
2
2
2
2
2
2
2
2
2
2
2
2
2
2
2
2
2
2
2
2
2
2
2
2
2
2
2
2
2
2
2
2
2
2
2
2
2
2
2
2
2
2
2
2
2
2
2
2
2
2
2
2
2
2
2
2
2
2
2
2
2
2
2
2
2
2
2
2
2
2
2
2
2
2
2
2
2
2
2
2
2
2
2
2
2
2
2
2
2
2
2
2
2
2
2
2
2
2
2
2
2
2
2
2
2
2
2
2
2
2
2
2
2
2
2
2
2
2
2
2
2
2
2
2
2
2
2
2
2
2
2
2
2
2
2
2
2
2
2
2
2
2
2
2
2
2
2
2
2
2
2
2
2
2
2
2
2
2
2
2
2
2
2
2
2
2
2
2
2
2
2
2
2
2
2
2
2
2
2
2
2
2
2
2
2
2
2
2
2
2
2
2
2
2
2
2
2
2
2
2
2
2
2
2
2
2
2
2
2
2
2
2
2
2
2
2
2
2
2
2
2
2
2
2
2
2
2
2
2
2
2
2
2
2
2
2
2
2
2
2
2
2
2
2
2
2
2
2
2
2
2
2
2
2
2
2
2
2
2
2
2
2
2
2
2
2
2
2
2
2
2
2
2
2
2
2
2
2
2
2
2
2
2
2
2
2
2
2
2
2
2
2
2
2
2
2
2
2
2
2
2
2
2
2
2
2
2
2
2
2
2
2
2
2
2
2
2
2
2
2
2
2
2
2
2
2
2
2
2
2
2
2
2
2
2
2
2
2
2
2
2
2
2
2
2
2
2
2
2
2
2
2
2
2
2
2
2
2
2
2
2
2
2
2
2
2
2
2
2
2
2
2
2
2
2
2
2
2
2
2
2
2
2
2
2
2
2
2
2
2
2
2
2
2
2
2
2
2
2
2
2
2
2
2
2
2
2
2
2
2
2
2
2
2
2
2
2
2
2
2
2
2
2
2
2
2
2
2
2
2
2
2
2
2
2
2
2
2
2
2
2
2
2
2
2
2
2
2
2
2
2
2
2
2
2
2
2
2
2
2
2
2
2
2
2
2
2
2
2
2
2
2
2
2
2
2
2
2
2
2
2
2
2
2
2
2
2
2
2
2
2
2
2
2
2
2
2
2
2
2
2
2
2
2
2
2
2
2
2
2
2
2
2
2
2
2
2
2
2
2
2
2
2
2
2
2
2
2
2
2
2
2
2
2
2
2
2
2
2
2
2
2
2
2
2
2
2
2
2
2
2
2
2
2
2
2
2
2
2
2
2
2
2
2
2
2
2
2
2
2
2
2
2
2
2
2
2
2
2
2
2
2
2
2
2
2
2
2
2
2
2
2
2
2
2
2
2
2
2
2
2
2
2
2
2
2
2
2
2
2
2
2
2
2
2
2
2
2
2
2
2
2
2
2
2
2
2
2
2
2
2
2
2
2
2
2
2
2
2
2
2
2
2
2
2
2
2
2
2
2
2
2
2
2
2
2
2
2
2
2
2
2
2
2
2
2
2
2
2
2
2
2
2
2
2
2
2
2
2
2
2
2
2
2
2
2
2
2
2
2
2
2
2
2
2
2
2
2
2
2
2
2
2
2
2
2
2
2
2
2
2
2
2
2
2
2
2
2
2
2
2
2
2
2
2
2
2
2
2
2
2
2
2
2
2
2
2
2
2
2
2
2
2
2
2
2
2
2
2
2
2
2
2
2
2
2
2
2
2
2
2
2
2
2
2
2
2
2
2
2
2
2
2
2
2
2
2
2
2
2
2
2
2
2
2
2
2
2
2
2
2
2
2
2
2
2
2
2
2
2
2
2
2
2
2
2
2
2
2
2
2
2
2
2
2
2
2
2
2
2
2
2
2
2
2
2
2
2
2
2
2
2
2
2
2
2
2
2
2
2
2
2
2
2
2
2
2
2
2
2
2
2
2
2
2
2
2
2
2
2
2
2
2
2
2
2
2
2
2
2
2
2
2
2
2
2
2
2
2
2
2
2
2
2
2
2
2
2
2
2
2
2
2
2
2
2
2
2
2
2
2
2
2
2
2
2
2
2
2
2
2
2
2
2
2
2
2
2
2
2
2
2
2
2
2
2
2
2
2
2
2
2
2
2
2
2
2
2
2
2
2
2
2
2
2
2
2
2
2
2
2
2
2
2
2
2
2
2
2
2
2
2
2
2
2
2
2
2
2
2
2
2
2
2
2
2
2
2
2
2
2
2
2
2
2
2
2
2
2
2
2
2
2
2
2
2
2
2
2
2
2
2
2
2
2
2
2
2
2
2
2
2
2
2
2
2
2
2
2
2
2
2
2
2
2
2
2
2
2
2
2
2
2
2
2
2
2
2
2
2
2
2
2
2
2
2
2
2
2
2
2
2
2
2
2
2
2
2
2
2
2
2
2
2
2
2
2
2
2
2
2
2
2
2
2
2
2
2
2
2
2
2
2
2
2
2
2
2
2
2
2
2
2
2
2
2
2
2
2
2
2
2
2
2
2
2
2
2
2
2
2
2
2
2
2
2
2
2
2
2
2
2
2
2
2
2
2
2
2
2
2
2
2
2
2
2
2
2
2
2
2
2
2
2
2
2
2
2
2
2
2
2
2
2
2
2
2
2
2
2
2
2
2
2
2
2
2
2
2
2
2
2
2
2
2
2
2
2
2
2
2
2
2
2
2
2
2
2
2
2
2
2
2
2
2
2
2
2
2
2
2
2
2
2
2
2
2
2
2
2
2
2
2
2
2
2
2
2
2
2
2
2
2
2
2
2
2
2
2
2
2
2
2
2
2
2
2
2
2
2
2
2
2
2
2
2
2
2
2
2
2
2
2
2
2
2
2
2
2
2
2
2
2
2
2
2
2
2
2
2
2
2
2
2
2
2
2
2
2
2
2
2
2
2
2
2
2
2
2
2
2
2
2
2
2
2
2
2
2
2
2
2
2
2
2
2
2
2
2
2
2
2
2
2
2
2
2
2
2
2
2
2
2
2
2
2
2
2
2
2
2
2
2
2
2
2
2
2
2
2
2
2
2
2
2
2
2
2
2
2
2
2
2
2
2
2
2
2
2
2
2
2
2
2
2
2
2
2
2
2
2
2
2
2
2
2
2
2
2
2
2
2
2
2
2
2
2
2
2
2
2
2
2
2
2
2
2
2
2
2
2
2
2
2
2
2
2
2
2
2
2
2
2
2
2
2
2
2
2
2
2
2
2
2
2
2
2
2
2
2
2
2
2
2
2
2
2
2
2
2
2
2
2
2
2
2
2
2
2
2
2
2
2
2
2
2
2
2
2
2
2
2
2
2
2
2
2
2
2
2
2
2
2
2
2
2
2
2
2
2
2
2
2
2
2
2
2
2
2
2
2
2
2
2
2
2
2
2
2
2
2
2
2
2
2
2
2
2
2
2
2
2
2
2
2
2
2
2
2
2
2
2
2
2
2
2
2
2
2
2
2
2
2
2
2
2
2
2
2
2
2
2
2
2
2
2
2
2
2
2
2
2
2
2
2
2
2
2
2
2
2
2
2
2
2
2
2
2
2
2
2
2
2
2
2
2
2
2
2
2
2
2
2
2
2
2
2
2
2
2
2
2
2
2
2
2
2
2
2
2
2
2
2
2
2
2
2
2
2
2
2
2
2
2
2
2
2
2
2
2
2
2
2
2
2
2
2
2
2
2
2
2
2
2
2
2
2
2
2
2
2
2
2
2
2
2
2
2
2
2
2
2
2
2
2
2
2
2
2
2
2
2
2
2
2
2
2
2
2
2
2
2
2
2
2
2
2
2
2
2
2
2
2
2
2
2
2
2
2
2
2
2
2
2
2
2
2
2
2
2
2
2
2
2
2
2
2
2
2
2
2
2
2
2
2
2
2
2
2
2
2
2
2
2
2
2
2
2
2
2
2
2
2
2
2
2
2
2
2
2
2
2
2
2
2
2
2
2
2
2
2
2
2
2
2
2
2
2
2
2
2
2
2
2
2
2
2
2
2
2
2
2
2
2
2
2
2
2
2
2
2
2
2
2
2
2
2
2
2
2
2
2
2
2
2
2
2
2
2
2
2
2
2
2
2
2
2
2
2
2
2
2
2
2
2
2
2
2
2
2
2
2
2
2
2
2
2
2
2
2
2
2
2
2
2
2
2
2
2
2
2
2
2
2
2
2
2
2
2
2
2
2
2
2
2
2
2
2
2
2
2
2
2
2
2
2
2
2
2
2
2
2
2
2
2
2
2
2
2
2
2
2
2
2
2
2
2
2
2
2
2
2
2
2
2
2
2
2
2
2
2
2
2
2
2
2
2
2
2
2
2
2
2
2
2
2
2
2
2
2
2
2
2
2
2
2
2
2
2
2
2
2
2
2
2
2
2
2
2
2
2
2
2
2
2
2
2
2
2
2
2
2
2
2
2
2
2
2
2
2
2
2
2
2
2
2
2
2
2
2
2
2
2
2
2
2
2
2
2
2
2
2
2
2
2
2
2
2
2
2
2
2
2
2
2
2
2
2
2
2
2
2
2
2
2
2
2
2
2
2
2
2
2
2
2
2
2
2
2
2
2
2
2
2
2
2
2
2
2
2
2
2
2
2
2
2
2
2
2
2
2
2
2
2
2
2
2
2
2
2
2
2
2
2
2
2
2
2
2
2
2
2
2
2
2
2
2
2
2
2
2
2
2
2
2
2
2
2
2
2
2
2
2
2
2
2
2
2
2
2
2
2
2
2
2
2
2
2
2
2
2
2
2
2
2
2
2
2
2
2
2
2
2
2
2
2
2
2
2
2
2
2
2
2
2
2
2
2
2
2
2
2
2
2
2
2
2
2
2
2
2
2
2
2
2
2
2
2
2
2
2
2
2
2
2
2
2
2
2
2
2
2
2
2
2
2
2
2
2
2
2
2
2
2
2
2
2
2
2
2
2
2
2
2
2
2
2
2
2
2
2
2
2
2
2
2
2
2
2
2
2
2
2
2
2
2
2
2
2
2
2
2
2
2
2
2
2
2
2
2
2
2
2
2
2
2
2
2
2
2
2
2
2
2
2
2
2
2
2
2
2
2
2
2
2
2
2
2
2
2
2
2
2
2
2
2
2
2
2
2
2
2
2
2
2
2
2
2
2
2
2
2
2
2
2
2
2
2
2
2
2
2
2
2
2
2
2
2
2
2
2
2
2
2
2
2
2
2
2
2
2
2
2
2
2
2
2
2
2
2
2
2
2
2
2
2
2
2
2
2
2
2
2
2
2
2
2
2
2
2
2
2
2
2
2
2
2
2
2
2
2
2
2
2
2
2
2
2
2
2
2
2
2
2
2
2
2
2
2
2
2
2
2
2
2
2
2
2
2
2
2
2
2
2
2
2
2
2
2
2
2
2
2
2
2
2
2
2
2
2
2
2
2
2
2
2
2
2
2
2
2
2
2
2
2
2
2
2
2
2
2
2
2
2
2
2
2
2
2
2
2
2
2
2
2
2
2
2
2
2
2
2
2
2
2
2
2
2
2
2
2
2
2
2
2
2
2
2
2
2
2
2
2
2
2
2
2
2
2
2
2
2
2
2
2
2
2
2
2
2
2
2
2
2
2
2
2
2
2
2
2
2
2
2
2
2
2
2
2
2
2
2
2
2
2
2
2
2
2
2
2
2
2
2
2
2
2
2
2
2
2
2
2
2
2
2
2
2
2
2
2
2
2
2
2
2
2
2
2
2
2
2
2
2
2
2
2
2
2
2
2
2
2
2
2
2
2
2
2
2
2
2
2
2
2
2
2
2
2
2
2
2
2
2
2
2
2
2
2
2
2
2
2
2
2
2
2
2
2
2
2
2
2
2
2
2
2
2
2
2
2
2
2
2
2
2
2
2
2
2
2
2
2
2
2
2
2
2
2
2
2
2
2
2
2
2
2
2
2
2
2
2
2
2
2
2
2
2
2
2
2
2
2
2
2
2
2
2
2
2
2
2
2
2
2
2
2
2
2
2
2
2
2
2
2
2
2
2
2
2
2
2
2
2
2
2
2
2
2
2
2
2
2
2
2
2
2
2
2
2
2
2
2
2
2
2
2
2
2
2
2
2
2
2
2
2
2
2
2
2
2
2
2
2
2
2
2
2
2
2
2
2
2
2
2
2
2
2
2
2
2
2
2
2
2
2
2
2
2
2
2
2
2
2
2
2
2
2
2
2
2
2
2
2
2
2
2
2
2
2
2
2
2
2
2
2
2
2
2
2
2
2
2
2
2
2
2
2
2
2
2
2
2
2
2
2
2
2
2
2
2
2
2
2
2
2
2
2
2
2
2
2
2
2
2
2
2
2
2
2
2
2
2
2
2
2
2
2
2
2
2
2
2
2
2
2
2
2
2
2
2
2
2
2
2
2
2
2
2
2
2
2
2
2
2
2
2
2
2
2
2
2
2
2
2
2
2
2
2
2
2
2
2
2
2
2
2
2
2
2
2
2
2
2
2
2
2
2
2
2
2
2
2
2
2
2
2
2
2
2
2
2
2
2
2
2
2
2
2
2
2
2
2
2
2
2
2
2
2
2
2
2
2
2
2
2
2
2
2
2
2
2
2
2
2
2
2
2
2
2
2
2
2
2
2
2
2
2
2
2
2
2
2
2
2
2
2
2
2
2
2
2
2
2
2
2
2
2
2
2
2
2
2
2
2
2
2
2
2
2
2
2
2
2
2
2
2
2
2
2
2
2
2
2
2
2
2
2
2
2
2
2
2
2
2
2
2
2
2
2
2
2
2
2
2
2
2
2
2
2
2
2
2
2
2
2
2
2
2
2
2
2
2
2
2
2
2
2
2
2
2
2
2
2
2
2
2
2
2
2
2
2
2
2
2
2
2
2
2
2
2
2
2
2
2
2
2
2
2
2
2
2
2
2
2
2
2
2
2
2
2
2
2
2
2
2
2
2
2
2
2
2
2
2
2
2
2
2
2
2
2
2
2
2
2
2
2
2
2
2
2
2
2
2
2
2
2
2
2
2
2
2
2
2
2
2
2
2
2
2
2
2
2
2
2
2
2
2
2
2
2
2
2
2
2
2
2
2
2
2
2
2
2
2
2
2
2
2
2
2
2
2
2
2
2
2
2
2
2
2
2
2
2
2
2
2
2
2
2
2
2
2
2
2
2
2
2
2
2
2
2
2
2
2
2
2
2
2
2
2
2
2
2
2
2
2
2
2
2
2
2
2
2
2
2
2
2
2
2
2
2
2
2
2
2
2
2
2
2
2
2
2
2
2
2
2
2
2
2
2
2
2
2
2
2
2
2
2
2
2
2
2
2
2
2
2
2
2
2
2
2
2
2
2
2
2
2
2
2
2
2
2
2
2
2
2
2
2
2
2
2
2
2
2
2
2
2
2
2
2
2
2
2
2
2
2
2
2
2
2
2
2
2
2
2
2
2
2
2
2
2
2
2
2
2
2
2
2
2
2
2
2
2
2
2
2
2
2
2
2
2
2
2
2
2
2
2
2
2
2
2
2
2
2
2
2
2
2
2
2
2
2
2
2
2
2
2
2
2
2
2
2
2
2
2
2
2
2
2
2
2
2
2
2
2
2
2
2
2
2
2
2
2
2
2
2
2
2
2
2
2
2
2
2
2
2
2
2
2
2
2
2
2
2
2
2
2
2
2
2
2
2
2
2
2
2
2
2
2
2
2
2
2
2
2
2
2
2
2
2
2
2
2
2
2
2
2
2
2
2
2
2
2
2
2
2
2
2
2
2
2
2
2
2
2
2
2
2
2
2
2
2
2
2
2
2
2
2
2
2
2
2
2
2
2
2
2
2
2
2
2
2
2
2
2
2
2
2
2
2
2
2
2
2
2
2
2
2
2
2
2
2
2
2
2
2
2
2
2
2
2
2
2
2
2
2
2
2
2
2
2
2
2
2
2
2
2
2
2
2
2
2
2
2
2
2
2
2
2
2
2
2
2
3
3
3
3
3
3
3
3
3
3
3
3
3
3
3
3
3
3
3
3
3
3
3
3
3
3
3
3
3
3
3
3
3
3
3
3
3
3
3
3
3
3
3
3
3
3
3
3
3
3
3
3
3
3
3
3
3
3
3
3
3
3
3
3
3
3
3
3
3
3
3
3
3
3
3
3
3
3
3
3
3
3
3
3
3
3
3
3
3
3
3
3
3
3
3
3
3
3
3
3
3
3
3
3
3
3
3
3
3
3
3
3
3
3
3
3
3
3
3
3
3
3
3
3
3
3
3
3
3
3
3
3
3
3
3
3
3
3
3
3
3
3
3
3
3
3
3
3
3
3
3
3
3
3
3
3
3
3
3
3
3
3
3
3
3
3
3
3
3
3
3
3
3
3
3
3
3
3
3
3
3
3
3
3
3
3
3
3
3
3
3
3
3
3
3
3
3
3
3
3
3
3
3
3
3
3
3
3
3
3
3
3
3
3
3
3
3
3
3
3
3
3
3
3
3
3
3
3
3
3
3
3
3
3
3
3
3
3
3
3
3
3
3
3
3
3
3
3
3
3
3
3
3
3
3
3
3
3
3
3
3
3
3
3
3
3
3
3
3
3
3
3
3
3
3
3
3
3
3
3
3
3
3
3
3
3
3
3
3
3
3
3
3
3
3
3
3
3
3
3
3
3
3
3
3
3
3
3
3
3
3
3
3
3
3
3
3
3
3
3
3
3
3
3
3
3
3
3
3
3
3
3
3
3
3
3
3
3
3
3
3
3
3
3
3
3
3
3
3
3
3
3
3
3
3
3
3
3
3
3
3
3
3
3
3
3
3
3
3
3
3
3
3
3
3
3
3
3
3
3
3
3
3
3
3
3
3
3
3
3
3
3
3
3
3
3
3
3
3
3
3
3
3
3
3
3
3
3
3
3
3
3
3
3
3
3
3
3
3
3
3
3
3
3
3
3
3
3
3
3
3
3
3
3
3
3
3
3
3
3
3
3
3
3
3
3
3
3
3
3
3
3
3
3
3
3
3
3
3
3
3
3
3
3
3
3
3
3
3
3
3
3
3
3
3
3
3
3
3
3
3
3
3
3
3
3
3
3
3
3
3
3
3
3
3
3
3
3
3
3
3
3
3
3
3
3
3
3
3
3
3
3
3
3
3
3
3
3
3
3
3
3
3
3
3
3
3
3
3
3
3
3
3
3
3
3
3
3
3
3
3
3
3
3
3
3
3
3
3
3
3
3
3
3
3
3
3
3
3
3
3
3
3
3
3
3
3
3
3
3
3
3
3
3
3
3
3
3
3
3
3
3
3
3
3
3
3
3
3
3
3
3
3
3
3
3
3
3
3
3
3
3
3
3
3
3
3
3
3
3
3
3
3
3
3
3
3
3
3
3
3
3
3
3
3
3
3
3
3
3
3
3
3
3
3
3
3
3
3
3
3
3
3
3
3
3
3
3
3
3
3
3
3
3
3
3
3
3
3
3
3
3
3
3
3
3
3
3
3
3
3
3
3
3
3
3
3
3
3
3
3
3
3
3
3
3
3
3
3
3
3
3
3
3
3
3
3
3
3
3
3
3
3
3
3
3
3
3
3
3
3
3
3
3
3
3
3
3
3
3
3
3
3
3
3
3
3
3
3
3
3
3
3
3
3
3
3
3
3
3
3
3
3
3
3
3
3
3
3
3
3
3
3
3
3
3
3
3
3
3
3
3
3
3
3
3
3
3
3
3
3
3
3
3
3
3
3
3
3
3
3
3
3
3
3
3
3
3
3
3
3
3
3
3
3
3
3
3
3
3
3
3
3
3
3
3
3
3
3
3
3
3
3
3
3
3
3
3
3
3
3
3
3
3
3
3
3
3
3
3
3
3
3
3
3
3
3
3
3
3
3
3
3
3
3
3
3
3
3
3
3
3
3
3
3
3
3
3
3
3
3
3
3
3
3
3
3
3
3
3
3
3
3
3
3
3
3
3
3
3
3
3
3
3
3
3
3
3
3
3
3
3
3
3
3
3
3
3
3
3
3
3
3
3
3
3
3
3
3
3
3
3
3
3
3
3
3
3
3
3
3
3
3
3
3
3
3
3
3
3
3
3
3
3
3
3
3
3
3
3
3
3
3
3
3
3
3
3
3
3
3
3
3
3
3
3
3
3
3
3
3
3
3
3
3
3
3
3
3
3
3
3
3
3
3
3
3
3
3
3
3
3
3
3
3
3
3
3
3
3
3
3
3
3
3
3
3
3
3
3
3
3
3
3
3
3
3
3
3
3
3
3
3
3
3
3
3
3
3
3
3
3
3
3
3
3
3
3
3
3
3
3
3
3
3
3
3
3
3
3
3
3
3
3
3
3
3
3
3
3
3
3
3
3
3
3
3
3
3
3
3
3
3
3
3
3
3
3
3
3
3
3
3
3
3
3
3
3
3
3
3
3
3
3
3
3
3
3
3
3
3
3
3
3
3
3
3
3
3
3
3
3
3
3
3
3
3
3
3
3
3
3
3
3
3
3
3
3
3
3
3
3
3
3
3
3
3
3
3
3
3
3
3
3
3
3
3
3
3
3
3
3
3
3
3
3
3
3
3
3
3
3
3
3
3
3
3
3
3
3
3
3
3
3
3
3
3
3
3
3
3
3
3
3
3
3
3
3
3
3
3
3
3
3
3
3
3
3
3
3
3
3
3
3
3
3
3
3
3
3
3
3
3
3
3
3
3
3
3
3
3
3
3
3
3
3
3
3
3
3
3
3
3
3
3
3
3
3
3
3
3
3
3
3
3
3
3
3
3
3
3
3
3
3
3
3
3
3
3
3
3
3
3
3
3
3
3
3
3
3
3
3
3
3
3
3
3
3
3
3
3
3
3
3
3
3
3
3
3
3
3
3
3
3
3
3
3
3
3
3
3
3
3
3
3
3
3
3
3
3
3
3
3
3
3
3
3
3
3
3
3
3
3
3
3
3
3
3
3
3
3
3
3
3
3
3
3
3
3
3
3
3
3
3
3
3
3
3
3
3
3
3
3
3
3
3
3
3
3
3
3
3
3
3
3
3
3
3
3
3
3
3
3
3
3
3
3
3
3
3
3
3
3
3
3
3
3
3
3
3
3
3
3
3
3
3
3
3
3
3
3
3
3
3
3
3
3
3
3
3
3
3
3
3
3
3
3
3
3
3
3
3
3
3
3
3
3
3
3
3
3
3
3
3
3
3
3
3
3
3
3
3
3
3
3
3
3
3
3
3
3
3
3
3
3
3
3
3
3
3
3
3
3
3
3
3
3
3
3
3
3
3
3
3
3
3
3
3
3
3
3
3
3
3
3
3
3
3
3
3
3
3
3
3
3
3
3
3
3
3
3
3
3
3
3
3
3
3
3
3
3
3
3
3
3
3
3
3
3
3
3
3
3
3
3
3
3
3
3
3
3
3
3
3
3
3
3
3
3
3
3
3
3
3
3
3
3
3
3
3
3
3
3
3
3
3
3
3
3
3
3
3
3
3
3
3
3
3
3
3
3
3
3
3
3
3
3
3
3
3
3
3
3
3
3
3
3
3
3
3
3
3
3
3
3
3
3
3
3
3
3
3
3
3
3
3
3
3
3
3
3
3
3
3
3
3
3
3
3
3
3
3
3
3
3
3
3
3
3
3
3
3
3
3
3
3
3
3
3
3
3
3
3
3
3
3
3
3
3
3
3
3
3
3
3
3
3
3
3
3
3
3
3
3
3
3
3
3
3
3
3
3
3
3
3
3
3
3
3
3
3
3
3
3
3
3
3
3
3
3
3
3
3
3
3
3
3
3
3
3
3
3
3
3
3
3
3
3
3
3
3
3
3
3
3
3
3
3
3
3
3
3
3
3
3
3
3
3
3
3
3
3
3
3
3
3
3
3
3
3
3
3
3
3
3
3
3
3
3
3
3
3
3
3
3
3
3
3
3
3
3
3
3
3
3
3
3
3
3
3
3
3
3
3
3
3
3
3
3
3
3
3
3
3
3
3
3
3
3
3
3
3
3
3
3
3
3
3
3
3
3
3
3
3
3
3
3
3
3
3
3
3
3
3
3
3
3
3
3
1
1
1
1
1
1
1
1
1
1
1
1
1
1
1
1
1
1
1
1
1
1
1
1
1
1
1
1
1
1
1
1
1
1
1
1
1
1
1
1
1
1
1
1
1
1
1
1
1
1
1
1
1
1
1
1
1
1
1
1
1
1
1
1
1
1
1
1
1
1
1
1
1
1
1
1
1
1
1
1
1
1
1
1
1
1
1
1
1
1
1
1
1
1
1
1
1
1
1
1
1
1
1
1
1
1
1
1
1
1
1
1
1
1
1
1
1
1
1
1
1
1
1
1
1
1
1
1
1
1
1
1
1
1
1
1
1
1
1
1
1
1
1
1
1
1
1
1
1
1
1
1
1
1
1
1
1
1
1
1
1
1
1
1
1
1
1
1
1
1
1
1
1
1
1
1
1
1
1
1
1
1
1
1
1
1
1
1
1
1
1
1
1
1
1
1
1
1
1
1
1
1
1
1
1
1
1
1
1
1
1
1
1
1
1
1
1
1
1
1
1
1
1
1
1
1
1
1
1
1
1
1
1
1
1
1
1
1
1
1
1
1
1
1
1
1
1
1
1
1
1
1
1
1
1
1
1
1
1
1
1
1
1
1
1
1
1
1
1
1
1
1
1
1
1
1
1
1
1
1
1
1
1
1
1
1
1
1
1
1
1
1
1
1
1
1
1
1
1
1
1
1
1
1
1
1
1
1
1
1
1
1
1
1
1
1
1
1
1
1
1
1
1
1
1
1
1
1
1
1
1
1
1
1
1
1
1
1
1
1
1
1
1
1
1
1
1
1
1
1
1
1
1
1
1
1
1
1
1
1
1
1
1
1
1
1
1
1
1
1
1
1
1
1
1
1
1
1
1
1
1
1
1
1
1
1
1
1
1
1
1
1
1
1
1
1
1
1
1
1
1
1
1
1
1
1
1
1
1
1
1
1
1
1
1
1
1
1
1
1
1
1
1
1
1
1
1
1
1
1
1
1
1
1
1
1
1
1
1
1
1
1
1
1
1
1
1
1
1
1
1
1
1
1
1
1
1
1
1
1
1
1
1
1
1
1
1
1
1
1
1
1
1
1
1
1
1
1
1
1
1
1
1
1
1
1
1
1
1
1
1
1
1
1
1
1
1
1
1
1
1
1
1
1
1
1
1
1
1
1
1
1
1
1
1
1
1
1
1
1
1
1
1
1
1
1
1
1
1
1
1
1
1
1
1
1
1
1
1
1
1
1
1
1
1
1
1
1
1
1
1
1
1
1
1
1
1
1
1
1
1
1
1
1
1
1
1
1
1
1
1
1
1
1
1
1
1
1
1
1
1
1
1
1
1
1
1
1
1
1
1
1
1
1
1
1
1
1
1
1
1
1
1
1
1
1
1
1
1
1
1
1
1
1
1
1
1
1
1
1
1
1
1
1
1
1
1
1
1
1
1
1
1
1
1
1
1
1
1
1
1
1
1
1
1
1
1
1
1
1
1
1
1
1
1
1
1
1
1
1
1
1
1
1
1
1
1
1
1
1
1
1
1
1
1
1
1
1
1
1
1
1
1
1
1
1
1
1
1
1
1
1
1
1
1
1
1
1
1
1
1
1
1
1
1
1
1
1
1
1
1
1
1
1
1
1
1
1
1
1
1
1
1
1
1
1
1
1
1
1
1
1
1
1
1
1
1
1
1
1
1
1
1
1
1
1
1
1
1
1
1
1
1
1
1
1
1
1
1
1
1
1
1
1
1
1
1
1
1
1
1
1
1
1
1
1
1
1
1
1
1
1
1
1
1
1
1
1
1
1
1
1
1
1
1
1
1
1
1
1
1
1
1
1
1
1
1
1
1
1
1
1
1
1
1
1
1
1
1
1
1
1
1
1
1
1
1
1
1
1
1
1
1
1
1
1
1
1
1
1
1
1
1
1
1
1
1
1
1
1
1
1
1
1
1
1
1
1
1
1
1
1
1
1
1
1
1
1
1
1
1
1
1
1
1
1
1
1
1
1
1
1
1
1
1
1
1
1
1
1
1
1
1
1
1
1
1
1
1
1
1
1
1
1
1
1
1
1
1
1
1
1
1
1
1
1
1
1
1
1
1
1
1
1
1
1
1
1
1
1
1
1
1
1
1
1
1
1
1
1
1
1
1
1
1
1
1
1
1
1
1
1
1
1
1
1
1
1
1
1
1
1
1
1
1
1
1
1
1
1
1
1
1
1
1
1
1
1
1
1
1
1
1
1
1
1
1
1
1
1
1
1
1
1
1
1
1
1
1
1
1
1
1
1
1
1
1
1
1
1
1
1
1
1
1
1
1
1
1
1
1
1
1
1
1
1
1
1
1
1
1
1
1
1
1
1
1
1
1
1
1
1
1
1
1
1
1
1
1
1
1
1
1
1
1
1
1
1
1
1
1
1
1
1
1
1
1
1
1
1
1
1
1
1
1
1
1
1
1
1
1
1
1
1
1
1
1
1
1
1
1
1
1
1
1
1
1
1
1
1
1
1
1
1
1
1
1
1
1
1
1
1
1
1
1
1
1
1
1
1
1
1
1
1
1
1
1
1
1
1
1
1
1
1
1
1
1
1
1
1
1
1
1
1
1
1
1
1
1
1
1
1
1
1
1
1
1
1
1
1
1
1
1
1
1
1
1
1
1
1
1
1
1
1
1
1
1
1
1
1
1
1
1
1
1
1
1
1
1
1
1
1
1
1
1
1
1
1
1
1
1
1
1
1
1
1
1
1
1
1
1
1
1
1
1
1
1
1
1
1
1
1
1
1
1
1
1
1
1
1
1
1
1
1
1
1
1
1
1
1
1
1
1
1
1
1
1
1
1
1
1
1
1
1
1
1
1
1
1
1
1
1
1
1
1
1
1
1
1
1
1
1
1
1
1
1
1
1
1
1
1
1
1
1
1
1
1
1
1
1
1
1
1
1
1
1
1
1
1
1
1
1
1
1
1
1
1
1
1
1
1
1
1
1
1
1
1
1
1
1
1
1
1
1
1
1
1
1
1
1
1
1
1
1
1
1
1
1
1
1
1
1
1
1
1
1
1
1
1
1
1
1
1
1
1
1
1
1
1
1
1
1
1
1
1
1
1
1
1
1
1
1
1
1
1
1
1
1
1
1
1
1
1
1
1
1
1
1
1
1
1
1
1
1
1
1
1
1
1
1
1
1
1
1
1
1
1
1
1
1
1
1
1
1
1
1
1
1
1
1
1
1
1
1
1
1
1
1
1
1
1
1
1
SCALARS thickness float 1
LOOKUP_TABLE default
6.056500e-01
5.656040e-01
6.170580e-01
6.878510e-01
5.057090e-01
7.608090e-01
8.485190e-01
8.618890e-01
8.279460e-01
7.769550e-01
7.968730e-01
7.010090e-01
7.331630e-01
6.547810e-01
6.887240e-01
6.626260e-01
6.960070e-01
7.879660e-01
8.005370e-01
7.180170e-01
6.821910e-01
6.511760e-01
6.452880e-01
6.520200e-01
7.229000e-01
7.572490e-01
6.579090e-01
6.164820e-01
6.198180e-01
5.928020e-01
6.125660e-01
6.015990e-01
6.787560e-01
6.414350e-01
5.793400e-01
5.462180e-01
5.391490e-01
5.869400e-01
5.442820e-01
6.000580e-01
6.106860e-01
6.093530e-01
5.837370e-01
5.850470e-01
5.803160e-01
6.461060e-01
6.584110e-01
5.991530e-01
6.301020e-01
5.585430e-01
5.527290e-01
5.712460e-01
6.764830e-01
5.487960e-01
5.753910e-01
6.232740e-01
6.481220e-01
6.475730e-01
5.829100e-01
6.955290e-01
5.072920e-01
7.491270e-01
7.852520e-01
6.259270e-01
5.727530e-01
6.119590e-01
6.785420e-01
5.533210e-01
6.647400e-01
6.232310e-01
7.039550e-01
6.606930e-01
7.244310e-01
7.039300e-01
7.064460e-01
7.238790e-01
7.055280e-01
6.779980e-01
6.417420e-01
6.725380e-01
6.288990e-01
6.391940e-01
6.515490e-01
7.550520e-01
5.673960e-01
6.576450e-01
6.664840e-01
8.158590e-01
7.289720e-01
7.020790e-01
6.513660e-01
6.775210e-01
6.804550e-01
6.956380e-01
5.854320e-01
6.111200e-01
7.335170e-01
6.051240e-01
7.468020e-01
6.279710e-01
6.298790e-01
7.858880e-01
7.288530e-01
6.538450e-01
5.422630e-01
6.086410e-01
5.566270e-01
5.398010e-01
5.213890e-01
5.189610e-01
5.219550e-01
5.234080e-01
5.311430e-01
5.525100e-01
5.374600e-01
5.015720e-01
5.119250e-01
5.118440e-01
4.917000e-01
5.683060e-01
6.230890e-01
6.302950e-01
6.754330e-01
5.170520e-01
5.209780e-01
5.427790e-01
6.234980e-01
6.233860e-01
6.179850e-01
6.809140e-01
7.327280e-01
7.424130e-01
6.188970e-01
6.047560e-01
6.676430e-01
7.067620e-01
6.780790e-01
6.677540e-01
5.684580e-01
6.439510e-01
6.720780e-01
7.566100e-01
7.509640e-01
7.180010e-01
7.597450e-01
7.648760e-01
7.566780e-01
7.700540e-01
7.524040e-01
6.423720e-01
6.213920e-01
6.267960e-01
6.634840e-01
6.017210e-01
7.904040e-01
6.710140e-01
6.723880e-01
6.688970e-01
6.854950e-01
7.633620e-01
5.471050e-01
7.924210e-01
8.269270e-01
7.973750e-01
7.604780e-01
7.151980e-01
6.980070e-01
6.552960e-01
7.546820e-01
7.554400e-01
7.468030e-01
7.249900e-01
7.177080e-01
6.948230e-01
7.186100e-01
6.822010e-01
6.369230e-01
5.961520e-01
7.171140e-01
7.452590e-01
7.342700e-01
7.267300e-01
7.025840e-01
6.467300e-01
6.206780e-01
6.427830e-01
7.047750e-01
6.969230e-01
6.662110e-01
6.217330e-01
5.622670e-01
5.131260e-01
6.009520e-01
5.820340e-01
6.177350e-01
6.055340e-01
6.288970e-01
6.263390e-01
5.711960e-01
5.567960e-01
5.698080e-01
6.016090e-01
5.511910e-01
5.260490e-01
5.586960e-01
6.032480e-01
6.285930e-01
5.903430e-01
6.558930e-01
6.723380e-01
6.392510e-01
6.398490e-01
7.425450e-01
5.997750e-01
6.280100e-01
5.948470e-01
6.641600e-01
8.195420e-01
6.212410e-01
6.658790e-01
8.065310e-01
6.658240e-01
6.575040e-01
6.754890e-01
6.892610e-01
6.196310e-01
6.461210e-01
6.235580e-01
6.607520e-01
6.397050e-01
5.707920e-01
5.465660e-01
6.061970e-01
6.404360e-01
6.805870e-01
6.810640e-01
7.369280e-01
7.067070e-01
6.597760e-01
7.089150e-01
6.962430e-01
7.569630e-01
7.287780e-01
6.653930e-01
6.476280e-01
6.371190e-01
7.371730e-01
7.861920e-01
7.612200e-01
6.760310e-01
8.254020e-01
6.374730e-01
7.739360e-01
8.219690e-01
8.029990e-01
7.980300e-01
7.778730e-01
5.141630e-01
5.226980e-01
5.340120e-01
5.321060e-01
5.402740e-01
5.399260e-01
5.374050e-01
5.202630e-01
5.097720e-01
5.050310e-01
5.016070e-01
5.085960e-01
4.984810e-01
4.986060e-01
4.916250e-01
5.026790e-01
5.517090e-01
6.014670e-01
5.918150e-01
5.429240e-01
5.258270e-01
5.820070e-01
6.349970e-01
7.106050e-01
6.779870e-01
6.404520e-01
6.170420e-01
5.548500e-01
5.424930e-01
5.099670e-01
5.331610e-01
6.131840e-01
6.306930e-01
5.745170e-01
5.365480e-01
5.755200e-01
6.288260e-01
6.543660e-01
6.836790e-01
7.304850e-01
7.378980e-01
7.199030e-01
7.388930e-01
7.413350e-01
7.575130e-01
6.400270e-01
6.234470e-01
6.213500e-01
5.644240e-01
5.818040e-01
6.199020e-01
6.636530e-01
6.557090e-01
6.604090e-01
7.819930e-01
5.753990e-01
7.680410e-01
7.401650e-01
7.424510e-01
7.241430e-01
6.896680e-01
6.731590e-01
6.645990e-01
7.427430e-01
7.214820e-01
7.192210e-01
6.866250e-01
6.721860e-01
6.550070e-01
6.612530e-01
6.463030e-01
6.107800e-01
5.914440e-01
7.033630e-01
6.776230e-01
6.533410e-01
6.478430e-01
6.339220e-01
6.702190e-01
7.243830e-01
6.691920e-01
6.731840e-01
7.165730e-01
6.521150e-01
5.754610e-01
5.150600e-01
4.477630e-01
4.775120e-01
6.323090e-01
6.367260e-01
6.000280e-01
5.749010e-01
5.849600e-01
5.709480e-01
5.549600e-01
5.501340e-01
5.420160e-01
5.665840e-01
5.850230e-01
5.583340e-01
5.610440e-01
6.428940e-01
7.182470e-01
7.014610e-01
6.443720e-01
6.628690e-01
5.895440e-01
8.313280e-01
6.621820e-01
5.636950e-01
6.019030e-01
6.567400e-01
6.655380e-01
5.908550e-01
5.459370e-01
5.262090e-01
5.525420e-01
5.374340e-01
5.304050e-01
5.779640e-01
5.956000e-01
5.416970e-01
5.405520e-01
5.658980e-01
6.234080e-01
6.488280e-01
6.182190e-01
7.749310e-01
6.899350e-01
6.949820e-01
6.223580e-01
6.365260e-01
6.221710e-01
6.643940e-01
6.226460e-01
7.229360e-01
7.437750e-01
7.428440e-01
6.823120e-01
6.471500e-01
6.568860e-01
7.668400e-01
7.782890e-01
7.117340e-01
6.918680e-01
5.421700e-01
5.238960e-01
5.261490e-01
5.328340e-01
5.388190e-01
5.421910e-01
5.382640e-01
5.181470e-01
4.882340e-01
4.695250e-01
4.680460e-01
4.809290e-01
4.886880e-01
4.888080e-01
5.070900e-01
4.949380e-01
4.958980e-01
5.010960e-01
5.280470e-01
5.295310e-01
5.736540e-01
5.923420e-01
6.177010e-01
6.326440e-01
6.216520e-01
5.620930e-01
5.479590e-01
5.122480e-01
5.389300e-01
5.325040e-01
5.053760e-01
4.975990e-01
5.032970e-01
5.099870e-01
5.368310e-01
5.583940e-01
5.919880e-01
6.016020e-01
6.046090e-01
6.839340e-01
6.826130e-01
6.306940e-01
6.127450e-01
6.088930e-01
5.607760e-01
5.135270e-01
5.214160e-01
5.087660e-01
5.137840e-01
5.534560e-01
6.194070e-01
5.675790e-01
6.402500e-01
5.728250e-01
6.011070e-01
6.193350e-01
6.263030e-01
6.493470e-01
6.611920e-01
6.446510e-01
6.283840e-01
6.527480e-01
6.483530e-01
6.630190e-01
6.605240e-01
6.450120e-01
6.446890e-01
6.721000e-01
6.522100e-01
5.802740e-01
6.416690e-01
7.326830e-01
7.614080e-01
8.158470e-01
8.425420e-01
5.744910e-01
5.747800e-01
5.069220e-01
6.540760e-01
5.828550e-01
6.348140e-01
5.087570e-01
5.372520e-01
6.579570e-01
5.023160e-01
4.956620e-01
5.191410e-01
5.309690e-01
5.382830e-01
5.390960e-01
5.423710e-01
5.428340e-01
5.395680e-01
5.350840e-01
5.308210e-01
5.181850e-01
5.027850e-01
4.879980e-01
4.806520e-01
4.668090e-01
4.577570e-01
4.777270e-01
4.431760e-01
4.678950e-01
4.468490e-01
4.671100e-01
4.435840e-01
4.661990e-01
4.402110e-01
4.375110e-01
4.671370e-01
4.392620e-01
4.660390e-01
4.418520e-01
4.409030e-01
4.663160e-01
4.456740e-01
4.447610e-01
4.645310e-01
4.539970e-01
4.549310e-01
4.684840e-01
4.549130e-01
4.711620e-01
4.571230e-01
4.628690e-01
4.687290e-01
4.615970e-01
4.687580e-01
4.716520e-01
4.847340e-01
4.621940e-01
4.618910e-01
4.659000e-01
4.414440e-01
4.577440e-01
4.459620e-01
4.397060e-01
4.524450e-01
4.464460e-01
4.403320e-01
4.452540e-01
4.356390e-01
4.398480e-01
4.408130e-01
4.276380e-01
4.378110e-01
4.355670e-01
4.350940e-01
4.292330e-01
4.311820e-01
4.317420e-01
4.247250e-01
4.292350e-01
4.305180e-01
4.256060e-01
4.298490e-01
4.298610e-01
4.241810e-01
4.306970e-01
4.290880e-01
4.276640e-01
4.321780e-01
4.323320e-01
4.334700e-01
4.335490e-01
4.363170e-01
4.324210e-01
4.368130e-01
4.344470e-01
4.347770e-01
4.357620e-01
4.186170e-01
4.304410e-01
4.343470e-01
4.252250e-01
4.436990e-01
4.313150e-01
4.328950e-01
4.475710e-01
4.351520e-01
4.359680e-01
4.480850e-01
4.336970e-01
4.318110e-01
4.483470e-01
4.328200e-01
4.335230e-01
4.467760e-01
4.353830e-01
4.322310e-01
4.474290e-01
4.352220e-01
4.331730e-01
4.490850e-01
4.376450e-01
4.339120e-01
4.512570e-01
4.403560e-01
4.395780e-01
4.559720e-01
4.471150e-01
4.408810e-01
4.620020e-01
4.520470e-01
4.476170e-01
4.736590e-01
4.582220e-01
4.543350e-01
4.906490e-01
4.671530e-01
4.657610e-01
5.035260e-01
4.842980e-01
4.962490e-01
5.277510e-01
4.931430e-01
5.051460e-01
5.572450e-01
5.641660e-01
7.068130e-01
6.595190e-01
6.464890e-01
6.569360e-01
6.201640e-01
5.914110e-01
5.639570e-01
5.477800e-01
5.128340e-01
4.992370e-01
4.515310e-01
5.828940e-01
4.786380e-01
5.378540e-01
6.087830e-01
6.684030e-01
7.185420e-01
6.842070e-01
6.384940e-01
6.225670e-01
6.631020e-01
5.635130e-01
5.889080e-01
5.981760e-01
5.664040e-01
5.765980e-01
6.352000e-01
6.579810e-01
6.462760e-01
6.249060e-01
6.259830e-01
6.218480e-01
6.353840e-01
6.003550e-01
6.287490e-01
6.357670e-01
6.585480e-01
6.547260e-01
6.395300e-01
6.937740e-01
4.858150e-01
4.989300e-01
5.214210e-01
5.257730e-01
5.334930e-01
5.403590e-01
5.388560e-01
5.388490e-01
5.349880e-01
5.285100e-01
5.114000e-01
4.993950e-01
4.884250e-01
4.772720e-01
4.642170e-01
4.489670e-01
6.569370e-01
5.975790e-01
6.191290e-01
6.276880e-01
6.500900e-01
6.546360e-01
5.931230e-01
5.119160e-01
5.078360e-01
4.830810e-01
6.127750e-01
6.353730e-01
5.724100e-01
7.719460e-01
7.997860e-01
5.215100e-01
5.070470e-01
6.094430e-01
6.088450e-01
4.636630e-01
4.545990e-01
4.602570e-01
4.544650e-01
4.589070e-01
4.532530e-01
4.545540e-01
4.653610e-01
4.605960e-01
4.717930e-01
4.619220e-01
4.664330e-01
4.732840e-01
4.637170e-01
4.706110e-01
4.762500e-01
4.759870e-01
4.726640e-01
4.695430e-01
4.719520e-01
4.703220e-01
4.743940e-01
4.770780e-01
4.679360e-01
4.798280e-01
4.790180e-01
4.754970e-01
4.748440e-01
4.687420e-01
4.677730e-01
4.601140e-01
4.469840e-01
4.457920e-01
4.487400e-01
4.525360e-01
4.548560e-01
4.460710e-01
4.524360e-01
4.530830e-01
4.460870e-01
4.481940e-01
4.500530e-01
4.383600e-01
4.453730e-01
4.452340e-01
4.446180e-01
4.414980e-01
4.370660e-01
4.405310e-01
4.389630e-01
4.371440e-01
4.395550e-01
4.405070e-01
4.384120e-01
4.376140e-01
4.390810e-01
4.397050e-01
4.382650e-01
4.435840e-01
4.420870e-01
4.418280e-01
4.455430e-01
4.447920e-01
4.431400e-01
4.437250e-01
4.451010e-01
4.419630e-01
4.403470e-01
4.312430e-01
4.249220e-01
4.274450e-01
4.297870e-01
4.329880e-01
4.453160e-01
4.430020e-01
4.462090e-01
4.494350e-01
4.472460e-01
4.483670e-01
4.521290e-01
4.518710e-01
4.475200e-01
4.480320e-01
4.503300e-01
4.487450e-01
4.479700e-01
4.514130e-01
4.492480e-01
4.481120e-01
4.510070e-01
4.490210e-01
4.479430e-01
4.500240e-01
4.507300e-01
4.506430e-01
4.499410e-01
4.554890e-01
4.544390e-01
4.544870e-01
4.565500e-01
4.581050e-01
4.583240e-01
4.619950e-01
4.670390e-01
4.652350e-01
4.679270e-01
4.824040e-01
4.796870e-01
4.807930e-01
5.033520e-01
5.006320e-01
4.956220e-01
5.248400e-01
5.367600e-01
5.722760e-01
5.737410e-01
7.506220e-01
6.488520e-01
6.245200e-01
6.158200e-01
6.494240e-01
6.394210e-01
6.524380e-01
6.135800e-01
6.047300e-01
5.590040e-01
5.450970e-01
5.989550e-01
6.443690e-01
6.940770e-01
7.342110e-01
6.736140e-01
5.701780e-01
5.693540e-01
5.492980e-01
6.545690e-01
5.917590e-01
6.276790e-01
6.303910e-01
5.656890e-01
5.812270e-01
5.939450e-01
5.877740e-01
5.476710e-01
5.398760e-01
4.931710e-01
4.759400e-01
4.638970e-01
4.830970e-01
4.909960e-01
4.827760e-01
6.439200e-01
6.281290e-01
6.538860e-01
6.198010e-01
6.230830e-01
6.578240e-01
6.245280e-01
6.619660e-01
6.306910e-01
5.746050e-01
6.236670e-01
5.780730e-01
5.722650e-01
6.219560e-01
4.681910e-01
4.573980e-01
4.602870e-01
4.586040e-01
4.611880e-01
4.623870e-01
4.661590e-01
4.714000e-01
4.785950e-01
4.828750e-01
4.827730e-01
4.881900e-01
4.826590e-01
4.821670e-01
4.896370e-01
4.894620e-01
4.857080e-01
4.792820e-01
4.794830e-01
4.813160e-01
4.815760e-01
4.831700e-01
4.843650e-01
4.790820e-01
4.897730e-01
4.777880e-01
4.850190e-01
4.876160e-01
4.875060e-01
4.850360e-01
4.720090e-01
4.654410e-01
4.574660e-01
4.666280e-01
4.544320e-01
4.559260e-01
4.560970e-01
4.679770e-01
4.549320e-01
4.586900e-01
4.588620e-01
4.535520e-01
4.506120e-01
4.516490e-01
4.533460e-01
4.546120e-01
4.472520e-01
4.518110e-01
4.511020e-01
4.460380e-01
4.487400e-01
4.480900e-01
4.496270e-01
4.490930e-01
4.476390e-01
4.515630e-01
4.486380e-01
4.500870e-01
4.507390e-01
4.510110e-01
4.529790e-01
4.556340e-01
4.553560e-01
4.529960e-01
4.562530e-01
4.522430e-01
4.510430e-01
4.430950e-01
4.362620e-01
4.330910e-01
4.315170e-01
4.328070e-01
4.443240e-01
4.486240e-01
4.508340e-01
4.568890e-01
4.580760e-01
4.564100e-01
4.568490e-01
4.591030e-01
4.621980e-01
4.619850e-01
4.562270e-01
4.639490e-01
4.611780e-01
4.584880e-01
4.616800e-01
4.625540e-01
4.560510e-01
4.615910e-01
4.609460e-01
4.562610e-01
4.574010e-01
4.604660e-01
4.589310e-01
4.586380e-01
4.634610e-01
4.615860e-01
4.589430e-01
4.616590e-01
4.663890e-01
4.651290e-01
4.721730e-01
4.687730e-01
4.693650e-01
4.847750e-01
4.781970e-01
4.919730e-01
4.959880e-01
4.997040e-01
5.107990e-01
5.108560e-01
5.215270e-01
5.525450e-01
6.228610e-01
6.994810e-01
7.372370e-01
7.327100e-01
4.823840e-01
7.353550e-01
6.304570e-01
6.777240e-01
6.206390e-01
6.043270e-01
5.732060e-01
5.562330e-01
5.470720e-01
6.080410e-01
6.796960e-01
6.586020e-01
6.445300e-01
5.206860e-01
6.423930e-01
5.986600e-01
5.864830e-01
6.385760e-01
5.072460e-01
5.166310e-01
5.178470e-01
5.218960e-01
5.245840e-01
5.251900e-01
5.256560e-01
5.218260e-01
5.147880e-01
5.036180e-01
4.907280e-01
4.794620e-01
4.714010e-01
5.934460e-01
6.374730e-01
6.826780e-01
7.606110e-01
5.061130e-01
5.265900e-01
6.205360e-01
5.786170e-01
5.850630e-01
5.916190e-01
5.997300e-01
5.980580e-01
5.778230e-01
6.551690e-01
7.351820e-01
5.900520e-01
6.205350e-01
6.223070e-01
6.080740e-01
5.825390e-01
5.437220e-01
5.149570e-01
5.551120e-01
6.266440e-01
6.590170e-01
6.455320e-01
6.126120e-01
5.918790e-01
5.880500e-01
5.856290e-01
5.589600e-01
5.240300e-01
5.786210e-01
5.974090e-01
5.951950e-01
5.995670e-01
5.937340e-01
6.624440e-01
6.297620e-01
6.084440e-01
5.472530e-01
5.442480e-01
5.107060e-01
4.613880e-01
4.256660e-01
4.675710e-01
4.951450e-01
4.887890e-01
4.825490e-01
6.580210e-01
6.312470e-01
5.642670e-01
4.897730e-01
5.326860e-01
5.848320e-01
5.869700e-01
5.654370e-01
5.244820e-01
5.046370e-01
4.834760e-01
4.611270e-01
4.652620e-01
4.609550e-01
5.915550e-01
7.575560e-01
6.495950e-01
5.213820e-01
5.574230e-01
6.385120e-01
7.028170e-01
6.077280e-01
5.964570e-01
6.460130e-01
5.226510e-01
5.520830e-01
5.339530e-01
5.262630e-01
5.370400e-01
5.456540e-01
5.348470e-01
4.931290e-01
4.941250e-01
5.111090e-01
4.978530e-01
5.063320e-01
5.118540e-01
5.189730e-01
5.138470e-01
5.393490e-01
5.603770e-01
5.202110e-01
5.234230e-01
5.911240e-01
5.636500e-01
7.008470e-01
6.362050e-01
5.993300e-01
5.883060e-01
5.419990e-01
5.224140e-01
5.067170e-01
5.370150e-01
5.480280e-01
5.760370e-01
5.771090e-01
5.422730e-01
5.175170e-01
5.369860e-01
5.777730e-01
6.944150e-01
7.710240e-01
7.002940e-01
6.594810e-01
6.849840e-01
6.104450e-01
7.313020e-01
6.817010e-01
6.889040e-01
6.974380e-01
6.098990e-01
5.246340e-01
5.315370e-01
5.304810e-01
5.289070e-01
5.346020e-01
5.336750e-01
5.189840e-01
4.914050e-01
4.623080e-01
4.469060e-01
4.469250e-01
4.627390e-01
4.777880e-01
4.751570e-01
4.866610e-01
4.989000e-01
5.062200e-01
5.134040e-01
5.263690e-01
5.414760e-01
5.503850e-01
5.864290e-01
5.822490e-01
5.491170e-01
5.426300e-01
5.086950e-01
4.935490e-01
4.663980e-01
5.099780e-01
5.172340e-01
5.153580e-01
5.098190e-01
5.090780e-01
5.081890e-01
5.171170e-01
5.348050e-01
5.493270e-01
5.389170e-01
5.910220e-01
6.565270e-01
6.332170e-01
6.072090e-01
5.638060e-01
5.472430e-01
5.294930e-01
5.061120e-01
5.133240e-01
5.183590e-01
5.125210e-01
5.547260e-01
6.019880e-01
5.931540e-01
6.318440e-01
5.885190e-01
6.335840e-01
6.065060e-01
7.116240e-01
5.099260e-01
5.910830e-01
6.202110e-01
6.244600e-01
6.180910e-01
6.195960e-01
5.986450e-01
5.464910e-01
6.927410e-01
7.917080e-01
5.593500e-01
5.914130e-01
5.836540e-01
5.811150e-01
5.715220e-01
5.519140e-01
5.288000e-01
5.298470e-01
5.110030e-01
5.110890e-01
5.268360e-01
5.443210e-01
5.430220e-01
5.358670e-01
5.497080e-01
5.521410e-01
5.384960e-01
5.283930e-01
5.489880e-01
5.676310e-01
5.629060e-01
5.645670e-01
5.684400e-01
5.700760e-01
5.708520e-01
5.085540e-01
4.420300e-01
4.050530e-01
4.448780e-01
4.814810e-01
4.909020e-01
4.796510e-01
4.893060e-01
4.755710e-01
4.151620e-01
4.355540e-01
4.067340e-01
4.167170e-01
4.585740e-01
4.510980e-01
4.722380e-01
4.866010e-01
4.537360e-01
4.042530e-01
3.944240e-01
4.598420e-01
4.987080e-01
5.222060e-01
5.032100e-01
5.205400e-01
4.728290e-01
4.348030e-01
5.019370e-01
4.876370e-01
5.350390e-01
5.279370e-01
5.381220e-01
5.208970e-01
5.123670e-01
5.161020e-01
5.041940e-01
5.090060e-01
5.053320e-01
4.970950e-01
4.947810e-01
4.925720e-01
4.924110e-01
4.999590e-01
5.050000e-01
5.017860e-01
4.809640e-01
4.939210e-01
5.247930e-01
5.123780e-01
5.016450e-01
5.411590e-01
5.601340e-01
5.582910e-01
5.652770e-01
5.986820e-01
5.010240e-01
5.391690e-01
5.611580e-01
5.220810e-01
4.969400e-01
4.775530e-01
4.560050e-01
4.808710e-01
5.006570e-01
5.178990e-01
5.423550e-01
5.456100e-01
5.254070e-01
5.074410e-01
5.165390e-01
5.161440e-01
5.111510e-01
5.020060e-01
5.050130e-01
5.532230e-01
5.559920e-01
5.032090e-01
6.016460e-01
6.066010e-01
5.281560e-01
5.386850e-01
5.548330e-01
6.330100e-01
6.590770e-01
6.189570e-01
5.785090e-01
5.692500e-01
6.675320e-01
6.826960e-01
6.526740e-01
6.351790e-01
5.876510e-01
5.270280e-01
5.428710e-01
5.434910e-01
5.385120e-01
5.213130e-01
5.293290e-01
5.536700e-01
5.482840e-01
5.405080e-01
5.187300e-01
4.889700e-01
4.808830e-01
4.820740e-01
4.758610e-01
4.741530e-01
4.855860e-01
5.000660e-01
4.647210e-01
4.594150e-01
4.579280e-01
4.611220e-01
4.617680e-01
4.694050e-01
4.735120e-01
4.893430e-01
4.941280e-01
4.958800e-01
4.942830e-01
4.910080e-01
4.982660e-01
5.023790e-01
4.997530e-01
4.902620e-01
4.839560e-01
4.821790e-01
4.806230e-01
4.847800e-01
4.908320e-01
4.920340e-01
4.811050e-01
4.921770e-01
5.021880e-01
5.025440e-01
5.065720e-01
5.158800e-01
5.089070e-01
4.895520e-01
4.796970e-01
4.733370e-01
4.734680e-01
4.754120e-01
4.646520e-01
4.729430e-01
4.652660e-01
4.650170e-01
4.659160e-01
4.626630e-01
4.629590e-01
4.582800e-01
4.593350e-01
4.620280e-01
4.557040e-01
4.600450e-01
4.566920e-01
4.564250e-01
4.590870e-01
4.559540e-01
4.575270e-01
4.569980e-01
4.576250e-01
4.586570e-01
4.588610e-01
4.583090e-01
4.579540e-01
4.621610e-01
4.637690e-01
4.658430e-01
4.669290e-01
4.642870e-01
4.667510e-01
4.606700e-01
4.581090e-01
4.560150e-01
4.506840e-01
4.414930e-01
4.438330e-01
4.447540e-01
4.515600e-01
4.560280e-01
4.628630e-01
4.626730e-01
4.666580e-01
4.674220e-01
4.669690e-01
4.675610e-01
4.728240e-01
4.706200e-01
4.707220e-01
4.708310e-01
4.716480e-01
4.718740e-01
4.688720e-01
4.716950e-01
4.671090e-01
4.676750e-01
4.711210e-01
4.693110e-01
4.647160e-01
4.662290e-01
4.681170e-01
4.684720e-01
4.686760e-01
4.677810e-01
4.693840e-01
4.662770e-01
4.691570e-01
4.705180e-01
4.688090e-01
4.773100e-01
4.718400e-01
4.804450e-01
4.748760e-01
4.842240e-01
4.993170e-01
5.015960e-01
5.075940e-01
5.105050e-01
5.340900e-01
5.654150e-01
5.925100e-01
6.135620e-01
5.943710e-01
6.539770e-01
5.877570e-01
6.148000e-01
6.065410e-01
6.152430e-01
5.106100e-01
5.153740e-01
5.191620e-01
5.189020e-01
5.198080e-01
5.175560e-01
5.130390e-01
5.029590e-01
4.902370e-01
4.810490e-01
4.711230e-01
6.384290e-01
5.794710e-01
5.196850e-01
5.229440e-01
5.252730e-01
5.220910e-01
5.235700e-01
5.162280e-01
4.972950e-01
4.702180e-01
4.481850e-01
4.347790e-01
4.358350e-01
4.537560e-01
4.561550e-01
4.702470e-01
4.910700e-01
5.121310e-01
5.196650e-01
5.151210e-01
5.362970e-01
5.498160e-01
5.250590e-01
5.087040e-01
4.730250e-01
4.462750e-01
4.236130e-01
4.924210e-01
5.041670e-01
5.086550e-01
5.086790e-01
5.046910e-01
5.075910e-01
5.053660e-01
5.025330e-01
5.049350e-01
4.809700e-01
4.713550e-01
4.988350e-01
5.048060e-01
5.159930e-01
6.009970e-01
5.954260e-01
6.028350e-01
5.739010e-01
5.533650e-01
6.563070e-01
6.571290e-01
6.771320e-01
5.954920e-01
5.569800e-01
5.313930e-01
5.464300e-01
5.525180e-01
5.472360e-01
5.229740e-01
5.251930e-01
5.287900e-01
5.177760e-01
4.968980e-01
4.814450e-01
4.694680e-01
4.577450e-01
4.643790e-01
4.716390e-01
4.836850e-01
4.977400e-01
6.294620e-01
6.153690e-01
5.771170e-01
5.324910e-01
5.134260e-01
6.001200e-01
5.996770e-01
5.678780e-01
5.307380e-01
5.196090e-01
5.229700e-01
5.182350e-01
5.132470e-01
5.058300e-01
4.856370e-01
4.548610e-01
4.316370e-01
4.199820e-01
4.183200e-01
4.330840e-01
4.611800e-01
4.797530e-01
4.944360e-01
5.105330e-01
5.152090e-01
5.158990e-01
5.140390e-01
5.163280e-01
4.952080e-01
4.655820e-01
4.301060e-01
4.124520e-01
4.838050e-01
4.955510e-01
4.970230e-01
4.987590e-01
5.002890e-01
5.015780e-01
5.003180e-01
4.880500e-01
4.625480e-01
4.696100e-01
4.906960e-01
4.847540e-01
4.850260e-01
4.502040e-01
4.163150e-01
4.916520e-01
4.723760e-01
4.992110e-01
5.048130e-01
5.049080e-01
5.049700e-01
5.024520e-01
5.021320e-01
5.149400e-01
5.389690e-01
5.722950e-01
5.865690e-01
5.732580e-01
5.599980e-01
7.204430e-01
5.386480e-01
6.143570e-01
5.880130e-01
5.933380e-01
4.998250e-01
5.032150e-01
5.075380e-01
5.081810e-01
5.084350e-01
5.059540e-01
4.953630e-01
4.849110e-01
4.737240e-01
4.650940e-01
4.611860e-01
4.544500e-01
4.559540e-01
4.573430e-01
4.664200e-01
4.689400e-01
4.966940e-01
5.002870e-01
4.946210e-01
5.105370e-01
5.000520e-01
5.084090e-01
5.047720e-01
4.811390e-01
4.798810e-01
4.820180e-01
4.824130e-01
4.923100e-01
4.971960e-01
4.972070e-01
5.082110e-01
5.162150e-01
5.237770e-01
5.362190e-01
5.509120e-01
5.453980e-01
5.097070e-01
4.993590e-01
4.969650e-01
4.887890e-01
4.856720e-01
4.742970e-01
4.775070e-01
4.757730e-01
4.703980e-01
4.732440e-01
4.716110e-01
4.660940e-01
4.673950e-01
4.655600e-01
4.678080e-01
4.657840e-01
4.666590e-01
4.641420e-01
4.663520e-01
4.644810e-01
4.643810e-01
4.626270e-01
4.648770e-01
4.658590e-01
4.633270e-01
4.683140e-01
4.662320e-01
4.670620e-01
4.706660e-01
4.721750e-01
4.728830e-01
4.753510e-01
4.751230e-01
4.761970e-01
4.719450e-01
4.692590e-01
4.725660e-01
4.716880e-01
4.642840e-01
4.625120e-01
4.683590e-01
4.692510e-01
4.694570e-01
4.743120e-01
4.722830e-01
4.725770e-01
4.774670e-01
4.779340e-01
4.782430e-01
4.835020e-01
4.837470e-01
4.819030e-01
4.799240e-01
4.813730e-01
4.807020e-01
4.780790e-01
4.769420e-01
4.787400e-01
4.760450e-01
4.746840e-01
4.770480e-01
4.737680e-01
4.712490e-01
4.743040e-01
4.747400e-01
4.735970e-01
4.709670e-01
4.737300e-01
4.685260e-01
4.707340e-01
4.711230e-01
4.673130e-01
4.758160e-01
4.783930e-01
4.728670e-01
4.770040e-01
4.803410e-01
4.828680e-01
4.945550e-01
5.057130e-01
5.137370e-01
5.235380e-01
5.554430e-01
5.867980e-01
5.955920e-01
5.955150e-01
5.776870e-01
6.819690e-01
5.859950e-01
4.980440e-01
6.956070e-01
5.149420e-01
5.467750e-01
5.060870e-01
4.857830e-01
4.375700e-01
4.024380e-01
4.395310e-01
4.705010e-01
4.817000e-01
4.773750e-01
4.640170e-01
4.723640e-01
4.652950e-01
4.450290e-01
4.190990e-01
4.268290e-01
4.069200e-01
4.067390e-01
4.397450e-01
4.424550e-01
4.370540e-01
4.167920e-01
4.456880e-01
4.593070e-01
4.600440e-01
4.552230e-01
4.590120e-01
4.529750e-01
4.541110e-01
4.703030e-01
4.877800e-01
5.248820e-01
5.168160e-01
5.359320e-01
5.107110e-01
4.978110e-01
5.024470e-01
4.974980e-01
4.974450e-01
4.174120e-01
4.329380e-01
4.357080e-01
4.367560e-01
4.377570e-01
4.577350e-01
4.763350e-01
5.057570e-01
5.115610e-01
5.114880e-01
4.865330e-01
4.782740e-01
4.896580e-01
4.923170e-01
4.843720e-01
4.762850e-01
4.794740e-01
4.809930e-01
4.873990e-01
4.910140e-01
4.866830e-01
4.622080e-01
4.684930e-01
5.047970e-01
5.130320e-01
5.108970e-01
5.247490e-01
5.166000e-01
5.686490e-01
5.393610e-01
5.729840e-01
5.629470e-01
5.580630e-01
4.837430e-01
5.240820e-01
5.382770e-01
5.065900e-01
4.812190e-01
4.646590e-01
4.438270e-01
4.387070e-01
4.531060e-01
4.750870e-01
4.873600e-01
5.098530e-01
5.243860e-01
5.220070e-01
5.113040e-01
5.109410e-01
5.114390e-01
5.217990e-01
5.271650e-01
6.123420e-01
4.901830e-01
4.943140e-01
5.673530e-01
5.636900e-01
5.525190e-01
5.213340e-01
5.167150e-01
5.083680e-01
5.133720e-01
5.000120e-01
4.975230e-01
4.879240e-01
4.685170e-01
4.374100e-01
4.119280e-01
4.032880e-01
4.014640e-01
4.201080e-01
4.594400e-01
4.842470e-01
4.900450e-01
4.892240e-01
4.913800e-01
4.938590e-01
4.900640e-01
4.906400e-01
4.764590e-01
4.544250e-01
4.460970e-01
4.574410e-01
4.558830e-01
4.699460e-01
4.757110e-01
4.760300e-01
4.616370e-01
4.931500e-01
4.928400e-01
4.941430e-01
4.942640e-01
4.957370e-01
4.952160e-01
4.963510e-01
4.999020e-01
5.205760e-01
5.450600e-01
5.152540e-01
6.024940e-01
5.734780e-01
5.535230e-01
7.532750e-01
7.213550e-01
5.769950e-01
5.403850e-01
5.850960e-01
5.650720e-01
5.284550e-01
5.339780e-01
5.337970e-01
5.227100e-01
4.476610e-01
4.314870e-01
4.533790e-01
4.908900e-01
5.984710e-01
4.433010e-01
6.897160e-01
6.893770e-01
6.518710e-01
6.673430e-01
5.858650e-01
6.242690e-01
6.384910e-01
6.637310e-01
5.584920e-01
5.440900e-01
5.609690e-01
5.585640e-01
5.587000e-01
5.494740e-01
5.378880e-01
5.356020e-01
5.239280e-01
5.202180e-01
5.197760e-01
5.172870e-01
5.184310e-01
5.003510e-01
4.870860e-01
5.059620e-01
5.169790e-01
5.202590e-01
5.244730e-01
5.357720e-01
5.494830e-01
5.381830e-01
5.408410e-01
5.528270e-01
4.767480e-01
4.632100e-01
4.574360e-01
4.588500e-01
4.685090e-01
4.794960e-01
4.763190e-01
4.917610e-01
4.959140e-01
5.012310e-01
5.033150e-01
5.023920e-01
4.997500e-01
4.915780e-01
4.844190e-01
4.751520e-01
4.610820e-01
4.548920e-01
4.423400e-01
4.429510e-01
4.418270e-01
4.558010e-01
4.597750e-01
4.897540e-01
5.025440e-01
5.188660e-01
5.258430e-01
5.120520e-01
4.889210e-01
4.698540e-01
4.701790e-01
4.761730e-01
4.831880e-01
4.926790e-01
4.975140e-01
5.075700e-01
5.210230e-01
5.314720e-01
5.468100e-01
5.496800e-01
5.772520e-01
5.880230e-01
5.431980e-01
5.563080e-01
5.250490e-01
5.135410e-01
4.991970e-01
4.866550e-01
4.838460e-01
4.843700e-01
4.770650e-01
4.792500e-01
4.768510e-01
4.742090e-01
4.731220e-01
4.722200e-01
4.722270e-01
4.720410e-01
4.713970e-01
4.721980e-01
4.709740e-01
4.675120e-01
4.720100e-01
4.699570e-01
4.712890e-01
4.707920e-01
4.706370e-01
4.733880e-01
4.735390e-01
4.752840e-01
4.762770e-01
4.783870e-01
4.817990e-01
4.838730e-01
4.867150e-01
4.862970e-01
4.875130e-01
4.876920e-01
4.968920e-01
5.046870e-01
4.919590e-01
4.961250e-01
5.043520e-01
4.966350e-01
4.917580e-01
4.884250e-01
4.853990e-01
4.851570e-01
4.881540e-01
4.886910e-01
4.869170e-01
4.923680e-01
4.918120e-01
4.898010e-01
4.882430e-01
4.868540e-01
4.872640e-01
4.861080e-01
4.865170e-01
4.839410e-01
4.803710e-01
4.792860e-01
4.820380e-01
4.781360e-01
4.771040e-01
4.767730e-01
4.773040e-01
4.750160e-01
4.745980e-01
4.702800e-01
4.718660e-01
4.692930e-01
4.749300e-01
4.729730e-01
4.744910e-01
4.690170e-01
4.744650e-01
4.794770e-01
4.810870e-01
4.836040e-01
4.892060e-01
5.042030e-01
5.158270e-01
5.348720e-01
5.634180e-01
5.696740e-01
5.458800e-01
5.758700e-01
5.202580e-01
5.344810e-01
7.185250e-01
4.920380e-01
4.946090e-01
6.235110e-01
6.396260e-01
6.246660e-01
6.385130e-01
5.643380e-01
4.282340e-01
4.217710e-01
4.039690e-01
4.062610e-01
4.279550e-01
4.380870e-01
4.277610e-01
4.240940e-01
4.258180e-01
4.428580e-01
4.920380e-01
4.859830e-01
4.854950e-01
4.733430e-01
4.533080e-01
4.252050e-01
4.102690e-01
3.985190e-01
3.966280e-01
4.091850e-01
4.234310e-01
4.560630e-01
4.729300e-01
4.762550e-01
4.816840e-01
4.822510e-01
4.842640e-01
4.818420e-01
4.754700e-01
4.560920e-01
4.439550e-01
4.420310e-01
4.493220e-01
4.499630e-01
4.587390e-01
4.622720e-01
4.641650e-01
4.643660e-01
4.589480e-01
4.849270e-01
4.836450e-01
4.854770e-01
4.853290e-01
4.878820e-01
4.907030e-01
4.966360e-01
5.117970e-01
5.132130e-01
5.659000e-01
4.402700e-01
6.507670e-01
6.478140e-01
6.612730e-01
5.499520e-01
5.304440e-01
5.287440e-01
5.252480e-01
5.318810e-01
5.212820e-01
5.206580e-01
5.156320e-01
5.022050e-01
4.744460e-01
4.775540e-01
4.798220e-01
4.969330e-01
5.128340e-01
5.147260e-01
5.193070e-01
5.246540e-01
5.281830e-01
5.282680e-01
5.271090e-01
5.173840e-01
4.783740e-01
5.147540e-01
5.457640e-01
5.208730e-01
5.185840e-01
5.136210e-01
4.828130e-01
5.062020e-01
4.868730e-01
4.873550e-01
4.724490e-01
4.645680e-01
4.665660e-01
4.623010e-01
4.683210e-01
4.805620e-01
4.901530e-01
4.825230e-01
4.802040e-01
4.755830e-01
4.496870e-01
4.533290e-01
4.877600e-01
5.042120e-01
5.115300e-01
5.197900e-01
5.249150e-01
4.971950e-01
5.551280e-01
5.364430e-01
5.682450e-01
5.578740e-01
5.516520e-01
5.529440e-01
4.891090e-01
5.322310e-01
5.317870e-01
5.035470e-01
4.725550e-01
4.553490e-01
4.365650e-01
4.288600e-01
4.344010e-01
4.464240e-01
4.639520e-01
4.799450e-01
4.962330e-01
5.130830e-01
4.887750e-01
4.965030e-01
4.956960e-01
4.930150e-01
4.862690e-01
4.716530e-01
4.562600e-01
4.498560e-01
4.306430e-01
4.325480e-01
4.253430e-01
4.434370e-01
4.495200e-01
5.241450e-01
5.252520e-01
5.340390e-01
5.474910e-01
4.529990e-01
4.396150e-01
4.545370e-01
4.659360e-01
4.782700e-01
4.890200e-01
4.990920e-01
5.115650e-01
5.222380e-01
5.388310e-01
5.387070e-01
5.270350e-01
5.681410e-01
6.123930e-01
6.833140e-01
5.927510e-01
5.536880e-01
5.326030e-01
5.110130e-01
5.012990e-01
4.903400e-01
4.902310e-01
4.864810e-01
4.847080e-01
4.803670e-01
4.807270e-01
4.820630e-01
4.791300e-01
4.749070e-01
4.761590e-01
4.772610e-01
4.758290e-01
4.739980e-01
4.729540e-01
4.745750e-01
4.761510e-01
4.742900e-01
4.740550e-01
4.770540e-01
4.781940e-01
4.755500e-01
4.810510e-01
4.814860e-01
4.835860e-01
4.879950e-01
4.912570e-01
4.979390e-01
5.016180e-01
5.054940e-01
5.133880e-01
5.289210e-01
5.585820e-01
5.487090e-01
5.539280e-01
5.566020e-01
5.314220e-01
5.178140e-01
5.064760e-01
5.004680e-01
4.978680e-01
4.995470e-01
5.002050e-01
5.037330e-01
4.992840e-01
5.047110e-01
5.029150e-01
4.983230e-01
4.967490e-01
4.987000e-01
4.999770e-01
4.935820e-01
4.935410e-01
4.939560e-01
4.922740e-01
4.940200e-01
4.880700e-01
4.847150e-01
4.847120e-01
4.854650e-01
4.829070e-01
4.822940e-01
4.789430e-01
4.786270e-01
4.775530e-01
4.743450e-01
4.699250e-01
4.727240e-01
4.720270e-01
4.726380e-01
4.735500e-01
4.718670e-01
4.683230e-01
4.702950e-01
4.730810e-01
4.777690e-01
4.813350e-01
4.829940e-01
4.932230e-01
5.072420e-01
5.181150e-01
5.442060e-01
5.542990e-01
5.377100e-01
5.129220e-01
6.037440e-01
5.795860e-01
4.941550e-01
4.822290e-01
4.722520e-01
4.600090e-01
4.447900e-01
4.275090e-01
4.141110e-01
4.054520e-01
3.983860e-01
3.957780e-01
3.991530e-01
4.206110e-01
4.460030e-01
4.598080e-01
4.668730e-01
4.686540e-01
4.726800e-01
4.712070e-01
4.686030e-01
4.576420e-01
4.496060e-01
4.394910e-01
4.414870e-01
4.406850e-01
4.465890e-01
4.527630e-01
4.554380e-01
4.555650e-01
4.572100e-01
4.607770e-01
4.603100e-01
4.716670e-01
4.750030e-01
4.754090e-01
4.769570e-01
4.804340e-01
4.839800e-01
4.852910e-01
4.911170e-01
4.966580e-01
4.968510e-01
5.691740e-01
4.672820e-01
6.304850e-01
5.414670e-01
6.285250e-01
5.749490e-01
5.981150e-01
6.533070e-01
6.978430e-01
6.138590e-01
5.816100e-01
5.542080e-01
5.727710e-01
7.035740e-01
7.151910e-01
6.617840e-01
5.811910e-01
5.859090e-01
5.865310e-01
5.751250e-01
5.234120e-01
5.083540e-01
4.703380e-01
4.826770e-01
5.479020e-01
5.289310e-01
5.233150e-01
5.144170e-01
4.984600e-01
5.020310e-01
4.983330e-01
4.806860e-01
4.547670e-01
4.282990e-01
4.141260e-01
4.146180e-01
4.284390e-01
4.520550e-01
4.677940e-01
4.784230e-01
4.951530e-01
4.550610e-01
4.566710e-01
4.323510e-01
4.548960e-01
4.390370e-01
4.279580e-01
4.377330e-01
4.517470e-01
4.822430e-01
4.703360e-01
4.627430e-01
4.665430e-01
4.670000e-01
4.653970e-01
4.730210e-01
5.019160e-01
4.948520e-01
4.733860e-01
4.642870e-01
4.296080e-01
4.079050e-01
4.378000e-01
4.618340e-01
4.690290e-01
4.670020e-01
4.566730e-01
4.492070e-01
4.499140e-01
4.456490e-01
4.358630e-01
5.110830e-01
5.065840e-01
4.979870e-01
4.852520e-01
5.043530e-01
5.104330e-01
6.079700e-01
6.009070e-01
6.034260e-01
5.412840e-01
5.419350e-01
5.504690e-01
4.741650e-01
4.714630e-01
4.635690e-01
4.647560e-01
4.706600e-01
4.769370e-01
4.871920e-01
4.901390e-01
4.889560e-01
4.470890e-01
4.407910e-01
4.717050e-01
4.892600e-01
5.014060e-01
5.062010e-01
5.130380e-01
5.083120e-01
5.039070e-01
4.992910e-01
4.917360e-01
5.417990e-01
5.570250e-01
5.608420e-01
5.519320e-01
5.521470e-01
5.399870e-01
5.339160e-01
5.164720e-01
4.898250e-01
4.315520e-01
4.323450e-01
4.307680e-01
4.272040e-01
4.385750e-01
4.314030e-01
4.369470e-01
4.571690e-01
4.752150e-01
5.075010e-01
4.807600e-01
4.897880e-01
4.865220e-01
4.727090e-01
4.584610e-01
4.411450e-01
4.309560e-01
5.412650e-01
5.390560e-01
5.290140e-01
5.527240e-01
4.365980e-01
4.329910e-01
4.464220e-01
4.626490e-01
4.755440e-01
4.876100e-01
4.984230e-01
5.104190e-01
5.287020e-01
5.297410e-01
5.315420e-01
5.370840e-01
5.676920e-01
6.699420e-01
6.243670e-01
5.924210e-01
5.605890e-01
5.282990e-01
5.232220e-01
5.103180e-01
4.982270e-01
4.952690e-01
4.911220e-01
4.896470e-01
4.825950e-01
4.850320e-01
4.883240e-01
4.813900e-01
4.760720e-01
4.787270e-01
4.801890e-01
4.765560e-01
4.757980e-01
4.785490e-01
4.761980e-01
4.798350e-01
4.775710e-01
4.765060e-01
4.790330e-01
4.804540e-01
4.780720e-01
4.831260e-01
4.841030e-01
4.862300e-01
4.925770e-01
4.975410e-01
5.056590e-01
5.144180e-01
5.234290e-01
5.373330e-01
5.600860e-01
6.090290e-01
6.424690e-01
6.471210e-01
6.028830e-01
5.682930e-01
5.472910e-01
5.293500e-01
5.190210e-01
5.113620e-01
5.079210e-01
5.106100e-01
5.006780e-01
4.919470e-01
4.895960e-01
4.757260e-01
4.595570e-01
4.380650e-01
4.044830e-01
3.961240e-01
5.160550e-01
5.452980e-01
5.231490e-01
5.312750e-01
4.250030e-01
4.282010e-01
4.467910e-01
4.636020e-01
4.797640e-01
4.908960e-01
5.004820e-01
5.034570e-01
5.269580e-01
5.338500e-01
5.469320e-01
6.218030e-01
5.850380e-01
6.561800e-01
5.968540e-01
5.598640e-01
5.378660e-01
5.311660e-01
5.215260e-01
5.120380e-01
5.043250e-01
4.962120e-01
4.933550e-01
4.926920e-01
4.858800e-01
4.882740e-01
4.871020e-01
4.816210e-01
4.804730e-01
4.799850e-01
4.806120e-01
4.776350e-01
4.773120e-01
4.817470e-01
4.785760e-01
4.790760e-01
4.780490e-01
4.763570e-01
4.791240e-01
4.809180e-01
4.805350e-01
4.820640e-01
4.834580e-01
4.897400e-01
4.996960e-01
5.077610e-01
5.180210e-01
5.307310e-01
5.380560e-01
5.563650e-01
5.869940e-01
6.559770e-01
6.195180e-01
5.695480e-01
5.793480e-01
5.562530e-01
5.427410e-01
5.309070e-01
5.188760e-01
5.141070e-01
5.179290e-01
5.104420e-01
4.910670e-01
4.880840e-01
5.027790e-01
5.017440e-01
4.926820e-01
4.874680e-01
4.716500e-01
4.608520e-01
4.271260e-01
4.152360e-01
4.358270e-01
4.548030e-01
4.631110e-01
4.554600e-01
4.529410e-01
4.454360e-01
4.347900e-01
4.353370e-01
4.323650e-01
4.295200e-01
4.197080e-01
4.168250e-01
4.056820e-01
4.093610e-01
4.213130e-01
4.284880e-01
4.371570e-01
4.219890e-01
4.220630e-01
4.213360e-01
4.140340e-01
4.106450e-01
4.244240e-01
4.495380e-01
4.561260e-01
5.069880e-01
6.665620e-01
6.519990e-01
6.496050e-01
6.251030e-01
5.170170e-01
5.234970e-01
5.502630e-01
5.580650e-01
5.269480e-01
5.180590e-01
5.053350e-01
4.785820e-01
4.769130e-01
4.584300e-01
4.509700e-01
4.471400e-01
4.479860e-01
4.401200e-01
4.443690e-01
4.710410e-01
5.049870e-01
5.379900e-01
5.587900e-01
5.311940e-01
5.617580e-01
5.474810e-01
5.312780e-01
5.278220e-01
5.154470e-01
5.186510e-01
5.162040e-01
5.233750e-01
5.169730e-01
5.126220e-01
5.001630e-01
4.838000e-01
4.591780e-01
4.638330e-01
4.774140e-01
4.894650e-01
5.016760e-01
5.039130e-01
5.058790e-01
5.104590e-01
5.098720e-01
5.096120e-01
5.086640e-01
5.088650e-01
3.999020e-01
4.068020e-01
5.335030e-01
5.145810e-01
5.064130e-01
4.882050e-01
4.705350e-01
4.736890e-01
4.815650e-01
4.903300e-01
4.999690e-01
5.061600e-01
4.810610e-01
5.187340e-01
5.505610e-01
5.722660e-01
4.459620e-01
6.818960e-01
6.987160e-01
6.095770e-01
5.452530e-01
5.357670e-01
5.378800e-01
5.186700e-01
5.106110e-01
5.056280e-01
4.953420e-01
4.964940e-01
4.928520e-01
4.863770e-01
4.883940e-01
4.846670e-01
4.828960e-01
4.789760e-01
4.806790e-01
4.801350e-01
4.772160e-01
4.773870e-01
4.798750e-01
4.778020e-01
4.775100e-01
4.777690e-01
4.751290e-01
4.788520e-01
4.811250e-01
4.785280e-01
4.801050e-01
4.810930e-01
4.860790e-01
4.995590e-01
5.064480e-01
5.158130e-01
5.305550e-01
5.404420e-01
5.507350e-01
5.733720e-01
6.464200e-01
5.288720e-01
6.321660e-01
5.927770e-01
5.701140e-01
5.498550e-01
5.331760e-01
5.254930e-01
5.187820e-01
5.171100e-01
5.167680e-01
5.103620e-01
5.048840e-01
5.045440e-01
5.046600e-01
5.020490e-01
5.022250e-01
5.013060e-01
4.999660e-01
4.985150e-01
4.961540e-01
4.960880e-01
4.922140e-01
4.894630e-01
4.910790e-01
4.876940e-01
4.850070e-01
4.855950e-01
4.833080e-01
4.803210e-01
4.782130e-01
4.761010e-01
4.715840e-01
4.715120e-01
4.722400e-01
4.708390e-01
4.737950e-01
4.736060e-01
4.697200e-01
4.694050e-01
4.708750e-01
4.725410e-01
4.778790e-01
4.830170e-01
4.877330e-01
5.062450e-01
5.180520e-01
5.329350e-01
5.445970e-01
5.374910e-01
5.189530e-01
5.168040e-01
4.958870e-01
4.621590e-01
4.623600e-01
4.502790e-01
4.432970e-01
4.556210e-01
4.562460e-01
4.579210e-01
4.584320e-01
4.368660e-01
4.594130e-01
4.794290e-01
4.914780e-01
4.939580e-01
4.896540e-01
4.950880e-01
5.090930e-01
5.189250e-01
5.116430e-01
5.052780e-01
5.520130e-01
5.609580e-01
5.685230e-01
5.563750e-01
5.475920e-01
5.745100e-01
5.217600e-01
4.997620e-01
4.732520e-01
4.449850e-01
4.307370e-01
4.208540e-01
4.233350e-01
4.341210e-01
4.450880e-01
4.564440e-01
4.723830e-01
4.849460e-01
4.980950e-01
4.303550e-01
4.260790e-01
5.044940e-01
4.959230e-01
4.886720e-01
4.785000e-01
4.885530e-01
4.964440e-01
4.784720e-01
4.559490e-01
4.344320e-01
4.160340e-01
4.103410e-01
4.215560e-01
4.402650e-01
4.521730e-01
4.611210e-01
5.083520e-01
5.104070e-01
5.067170e-01
5.050960e-01
5.042200e-01
5.033450e-01
5.012920e-01
4.982510e-01
4.949710e-01
4.958260e-01
4.937890e-01
4.920080e-01
4.907350e-01
4.894820e-01
4.871250e-01
4.830850e-01
4.806700e-01
4.781530e-01
4.784480e-01
4.739570e-01
4.704420e-01
4.726120e-01
4.715820e-01
4.728240e-01
4.710400e-01
4.693300e-01
4.701130e-01
4.692940e-01
4.712990e-01
4.771650e-01
4.860870e-01
4.837090e-01
4.963500e-01
5.123130e-01
5.251600e-01
5.362490e-01
5.336080e-01
5.147300e-01
5.071220e-01
4.998530e-01
4.924900e-01
4.863630e-01
4.789900e-01
4.664930e-01
4.544560e-01
4.295580e-01
4.234440e-01
4.349280e-01
4.499420e-01
4.558310e-01
4.497250e-01
4.460110e-01
4.327490e-01
4.224710e-01
4.188490e-01
4.172910e-01
4.152080e-01
4.109100e-01
4.126080e-01
4.099660e-01
4.068040e-01
4.117920e-01
4.170970e-01
4.182990e-01
4.588420e-01
4.628680e-01
4.659840e-01
4.678870e-01
4.706640e-01
4.746540e-01
4.790210e-01
4.810900e-01
4.854500e-01
4.891090e-01
4.843640e-01
4.942380e-01
4.897660e-01
5.395020e-01
4.700160e-01
4.438280e-01
5.058150e-01
6.449260e-01
5.538160e-01
5.533900e-01
5.271400e-01
4.851570e-01
4.750100e-01
4.958320e-01
5.201330e-01
5.289950e-01
5.311250e-01
5.185900e-01
5.037390e-01
5.481230e-01
5.306200e-01
5.168640e-01
5.224490e-01
5.127000e-01
4.820140e-01
4.701550e-01
4.530380e-01
4.653780e-01
4.725040e-01
4.757900e-01
4.856940e-01
4.903200e-01
4.886560e-01
4.827560e-01
4.650230e-01
4.479300e-01
4.457880e-01
4.444070e-01
4.350580e-01
4.252020e-01
4.203170e-01
4.340130e-01
4.436740e-01
4.500800e-01
4.519310e-01
4.493070e-01
4.417190e-01
4.242530e-01
4.205390e-01
4.210100e-01
4.350860e-01
4.584390e-01
4.808190e-01
4.766150e-01
4.813860e-01
4.371120e-01
4.274040e-01
4.232280e-01
4.197920e-01
4.216140e-01
4.364660e-01
4.582980e-01
4.726400e-01
4.694180e-01
4.784400e-01
4.733470e-01
5.156040e-01
5.509130e-01
5.248070e-01
5.526340e-01
5.707040e-01
5.660820e-01
5.740400e-01
5.759210e-01
5.453240e-01
4.944330e-01
4.800770e-01
4.534840e-01
4.392900e-01
4.257100e-01
4.150870e-01
4.152310e-01
4.269470e-01
4.356310e-01
4.440900e-01
4.547260e-01
4.650080e-01
4.723300e-01
4.818900e-01
4.540850e-01
4.514480e-01
4.548340e-01
4.568660e-01
4.628750e-01
4.691180e-01
4.712400e-01
4.749600e-01
4.796390e-01
4.852230e-01
4.906470e-01
4.910800e-01
4.914510e-01
4.923370e-01
4.950760e-01
6.342120e-01
4.555990e-01
5.086860e-01
5.518890e-01
5.821290e-01
6.130890e-01
5.342900e-01
4.526540e-01
4.590160e-01
4.741560e-01
4.534560e-01
4.347720e-01
4.199500e-01
4.116880e-01
4.169790e-01
4.290540e-01
4.417030e-01
4.559080e-01
4.582120e-01
4.534570e-01
4.466500e-01
4.291160e-01
4.170390e-01
4.040890e-01
3.985840e-01
3.983950e-01
3.964900e-01
4.028110e-01
4.118350e-01
4.379610e-01
4.513260e-01
4.544310e-01
4.620540e-01
4.616500e-01
4.643120e-01
4.613350e-01
4.538250e-01
4.484960e-01
4.389920e-01
4.375320e-01
4.372750e-01
4.399410e-01
4.435170e-01
4.484740e-01
4.510010e-01
4.501120e-01
4.508860e-01
5.039690e-01
5.118490e-01
5.171510e-01
5.129200e-01
5.032780e-01
4.893350e-01
4.726920e-01
4.536060e-01
4.493330e-01
4.647790e-01
4.894190e-01
4.939990e-01
4.991020e-01
5.029630e-01
5.020080e-01
5.037990e-01
5.034110e-01
4.542110e-01
4.529970e-01
4.334210e-01
4.291570e-01
4.206740e-01
4.163060e-01
4.093860e-01
4.060350e-01
4.131990e-01
4.216890e-01
4.294460e-01
4.389420e-01
4.437360e-01
4.390930e-01
4.784260e-01
4.615640e-01
4.450430e-01
4.299460e-01
4.181410e-01
4.138680e-01
4.178080e-01
4.220780e-01
4.359360e-01
4.477790e-01
4.459730e-01
4.394000e-01
4.366590e-01
4.303320e-01
4.158760e-01
4.077520e-01
4.028850e-01
3.972870e-01
3.957890e-01
3.958540e-01
3.995310e-01
4.073560e-01
4.202080e-01
4.434980e-01
4.435460e-01
4.515760e-01
4.549760e-01
4.532220e-01
4.534880e-01
4.509400e-01
4.429650e-01
4.399860e-01
4.375180e-01
4.363750e-01
4.397390e-01
4.428880e-01
4.446540e-01
4.498170e-01
4.484470e-01
4.487790e-01
4.497960e-01
4.676340e-01
4.591800e-01
4.695120e-01
4.735750e-01
4.600810e-01
4.581650e-01
4.566420e-01
4.789960e-01
5.024050e-01
4.934780e-01
4.879660e-01
4.831600e-01
4.760030e-01
4.617980e-01
4.566590e-01
4.316820e-01
4.287780e-01
4.374860e-01
4.473480e-01
4.464700e-01
4.486860e-01
4.347100e-01
4.233530e-01
4.100560e-01
4.066370e-01
4.042940e-01
4.026530e-01
4.023090e-01
4.012320e-01
4.058490e-01
4.046710e-01
4.029170e-01
4.164440e-01
4.181500e-01
4.334020e-01
4.303350e-01
4.282610e-01
4.229570e-01
4.200590e-01
4.221760e-01
4.362530e-01
4.553110e-01
4.692600e-01
4.700230e-01
4.535420e-01
4.626540e-01
5.044990e-01
6.033610e-01
5.537060e-01
5.526570e-01
5.672250e-01
5.549360e-01
6.311340e-01
6.770010e-01
5.197470e-01
4.715970e-01
4.583940e-01
4.418680e-01
4.250730e-01
4.130370e-01
4.097510e-01
4.115980e-01
4.214440e-01
4.292540e-01
4.292860e-01
4.351130e-01
4.422900e-01
4.511430e-01
4.610160e-01
4.698610e-01
5.122470e-01
5.134660e-01
5.105900e-01
5.097880e-01
5.068480e-01
5.033220e-01
5.031780e-01
5.003690e-01
4.965520e-01
4.934510e-01
4.894800e-01
4.913610e-01
4.936780e-01
4.892460e-01
4.835000e-01
4.806720e-01
4.787980e-01
4.791050e-01
4.743570e-01
4.684280e-01
4.698940e-01
4.741070e-01
4.694890e-01
4.712980e-01
4.717830e-01
4.702330e-01
4.697070e-01
4.734070e-01
4.722910e-01
4.818360e-01
4.883140e-01
4.967240e-01
5.134780e-01
5.212320e-01
5.227780e-01
5.317550e-01
5.088890e-01
4.658990e-01
4.946090e-01
5.127830e-01
5.246250e-01
5.271850e-01
5.129510e-01
5.032220e-01
4.796700e-01
5.466620e-01
5.281640e-01
5.198910e-01
4.649730e-01
4.682860e-01
4.726040e-01
4.783780e-01
4.837240e-01
4.903890e-01
4.975350e-01
4.954110e-01
4.633450e-01
5.043960e-01
5.025290e-01
5.012370e-01
5.054440e-01
5.005600e-01
4.777570e-01
4.683030e-01
5.197440e-01
4.982460e-01
5.055900e-01
5.191820e-01
5.290220e-01
5.382090e-01
5.357990e-01
5.317290e-01
4.891130e-01
4.819520e-01
4.908040e-01
5.043320e-01
4.861610e-01
4.736590e-01
4.665240e-01
4.897110e-01
4.877030e-01
4.897800e-01
4.940360e-01
4.941130e-01
4.990240e-01
5.092630e-01
5.113190e-01
5.059880e-01
4.960270e-01
4.823860e-01
4.657520e-01
4.526850e-01
4.530720e-01
4.635610e-01
4.582700e-01
4.598960e-01
4.684540e-01
4.774810e-01
4.858390e-01
4.860420e-01
4.897490e-01
4.909560e-01
4.960470e-01
4.168270e-01
4.101080e-01
4.093140e-01
4.208000e-01
4.250200e-01
4.470400e-01
4.481790e-01
4.576710e-01
4.557500e-01
4.598000e-01
4.681230e-01
4.750110e-01
6.568870e-01
6.706230e-01
5.494260e-01
4.637190e-01
5.515060e-01
5.397540e-01
5.268410e-01
5.176880e-01
5.081060e-01
5.029780e-01
4.977760e-01
4.947740e-01
4.911330e-01
4.863690e-01
4.863960e-01
4.826100e-01
4.822960e-01
4.763850e-01
4.804290e-01
4.777200e-01
4.748910e-01
4.764560e-01
4.763330e-01
4.763820e-01
4.756140e-01
4.754810e-01
4.733130e-01
4.770920e-01
4.799640e-01
4.765240e-01
4.767850e-01
4.787750e-01
4.830590e-01
4.864650e-01
4.363750e-01
4.290470e-01
4.236240e-01
4.201600e-01
4.266810e-01
4.248930e-01
4.208820e-01
4.242810e-01
4.363860e-01
4.506980e-01
4.577080e-01
4.526510e-01
4.520760e-01
4.550940e-01
4.729110e-01
5.039360e-01
5.759680e-01
5.598570e-01
5.669770e-01
5.614120e-01
5.645770e-01
5.232250e-01
5.228660e-01
4.730890e-01
4.599350e-01
4.374940e-01
4.396180e-01
4.292240e-01
4.148510e-01
4.094630e-01
4.124320e-01
4.182870e-01
4.250060e-01
4.259710e-01
4.277950e-01
4.313670e-01
4.362860e-01
4.431120e-01
4.476990e-01
4.522950e-01
4.664830e-01
4.980230e-01
5.032900e-01
5.129440e-01
5.239740e-01
5.373500e-01
5.507910e-01
5.747730e-01
5.395750e-01
5.174040e-01
5.303120e-01
5.000260e-01
4.956840e-01
4.767020e-01
4.706020e-01
5.108170e-01
5.623920e-01
5.670860e-01
5.351250e-01
5.221040e-01
5.079400e-01
4.507470e-01
4.524310e-01
4.588690e-01
4.696350e-01
4.713680e-01
4.761130e-01
4.798590e-01
4.826590e-01
4.921690e-01
4.934620e-01
4.954360e-01
4.842690e-01
5.345830e-01
4.550400e-01
6.895280e-01
3.972980e-01
5.773590e-01
5.388260e-01
4.983310e-01
4.953750e-01
4.085000e-01
4.059140e-01
4.018290e-01
3.983360e-01
3.993050e-01
4.030310e-01
4.056860e-01
4.144000e-01
4.201980e-01
4.282810e-01
4.944250e-01
4.877790e-01
4.850300e-01
4.803990e-01
4.729650e-01
4.653800e-01
4.524470e-01
4.373470e-01
4.309500e-01
4.443430e-01
4.460070e-01
4.420540e-01
4.447090e-01
4.362490e-01
4.252170e-01
4.134740e-01
4.020760e-01
4.006230e-01
3.984270e-01
3.964300e-01
3.933760e-01
3.984160e-01
4.003210e-01
4.081010e-01
4.133520e-01
5.175120e-01
5.178960e-01
5.116240e-01
5.097410e-01
5.063360e-01
5.053310e-01
5.013260e-01
4.986660e-01
4.977500e-01
4.960170e-01
4.967180e-01
5.005640e-01
4.922850e-01
4.947660e-01
4.913700e-01
4.916290e-01
4.914860e-01
4.891620e-01
4.831730e-01
4.810050e-01
4.771370e-01
4.790220e-01
4.733950e-01
4.697020e-01
4.678170e-01
4.744060e-01
4.712520e-01
4.758200e-01
4.749200e-01
4.727590e-01
4.709050e-01
4.763540e-01
4.779400e-01
4.793090e-01
4.839460e-01
4.887640e-01
4.897790e-01
4.990950e-01
5.074650e-01
5.048850e-01
5.001560e-01
4.881080e-01
4.768940e-01
4.648390e-01
4.555600e-01
4.528990e-01
4.723150e-01
4.787300e-01
4.881670e-01
4.935800e-01
5.017030e-01
5.061230e-01
5.268500e-01
5.204210e-01
5.517360e-01
5.589730e-01
5.684940e-01
6.194730e-01
5.580390e-01
6.077290e-01
5.656970e-01
5.500960e-01
5.267300e-01
5.199200e-01
5.174120e-01
5.205170e-01
5.195020e-01
5.090920e-01
5.065720e-01
5.026000e-01
5.035890e-01
5.010950e-01
4.924620e-01
5.338240e-01
5.405390e-01
5.106170e-01
5.307270e-01
4.108660e-01
4.068650e-01
4.391680e-01
4.238620e-01
4.145340e-01
4.125570e-01
4.145230e-01
4.195180e-01
4.283480e-01
4.421000e-01
4.371470e-01
4.351480e-01
4.284470e-01
4.205900e-01
4.131460e-01
4.072090e-01
4.027000e-01
3.979040e-01
3.969780e-01
3.987680e-01
3.998600e-01
4.348980e-01
4.434110e-01
4.475520e-01
4.457100e-01
4.480950e-01
4.413660e-01
4.395590e-01
4.376400e-01
4.377300e-01
4.408530e-01
4.445630e-01
4.445810e-01
4.469370e-01
4.501630e-01
4.485590e-01
4.932230e-01
4.910730e-01
4.940360e-01
4.936240e-01
4.943890e-01
4.970990e-01
4.898630e-01
4.879120e-01
4.940570e-01
4.887530e-01
4.889590e-01
4.833650e-01
4.803990e-01
4.758860e-01
4.760360e-01
4.761950e-01
4.692460e-01
4.694000e-01
4.688810e-01
4.708070e-01
4.705430e-01
4.746300e-01
4.777100e-01
4.795550e-01
4.776030e-01
4.807040e-01
5.491620e-01
4.216340e-01
4.177530e-01
4.150840e-01
4.143070e-01
4.202600e-01
4.262670e-01
4.287440e-01
4.240070e-01
4.255760e-01
4.347440e-01
4.451220e-01
4.519580e-01
4.480390e-01
4.506970e-01
4.503760e-01
4.524430e-01
4.649730e-01
4.898980e-01
5.077660e-01
5.299930e-01
5.780880e-01
5.605840e-01
5.396130e-01
5.828030e-01
5.298090e-01
4.783400e-01
4.915300e-01
4.595400e-01
4.346320e-01
4.302490e-01
4.221060e-01
4.119380e-01
5.124670e-01
5.673450e-01
5.104800e-01
5.142800e-01
5.134930e-01
5.088580e-01
5.029680e-01
4.973500e-01
4.976330e-01
4.930570e-01
4.854310e-01
4.859330e-01
4.830500e-01
4.782420e-01
4.780850e-01
4.736800e-01
4.746110e-01
4.751640e-01
4.726200e-01
4.725680e-01
4.742580e-01
4.743080e-01
4.731450e-01
4.727410e-01
4.706560e-01
4.733740e-01
4.765760e-01
4.718550e-01
4.758770e-01
4.759750e-01
4.814220e-01
4.839380e-01
5.817850e-01
4.884140e-01
5.058480e-01
5.091350e-01
5.027350e-01
5.001820e-01
4.977150e-01
4.934220e-01
4.877100e-01
4.807960e-01
4.809990e-01
4.795850e-01
4.735350e-01
4.731100e-01
4.684540e-01
4.724540e-01
4.700470e-01
4.695790e-01
4.704420e-01
4.708700e-01
4.691900e-01
4.684650e-01
4.682210e-01
4.669800e-01
4.697480e-01
4.709030e-01
4.690120e-01
4.710810e-01
4.715520e-01
4.763350e-01
4.735160e-01
4.752110e-01
4.790420e-01
4.828180e-01
4.911790e-01
4.944580e-01
5.003460e-01
5.065460e-01
5.285640e-01
5.380910e-01
5.376940e-01
6.124690e-01
5.793190e-01
5.656260e-01
6.069130e-01
5.787810e-01
5.584420e-01
5.553600e-01
5.453970e-01
5.357110e-01
5.340240e-01
5.231240e-01
5.185830e-01
5.191820e-01
5.198670e-01
5.110760e-01
5.051650e-01
5.027610e-01
4.980320e-01
4.982130e-01
4.974030e-01
4.091330e-01
4.073130e-01
3.972770e-01
3.976940e-01
4.131310e-01
4.035010e-01
4.863830e-01
4.829390e-01
4.790890e-01
4.752270e-01
4.699570e-01
4.652510e-01
4.567850e-01
4.477430e-01
4.390680e-01
4.337120e-01
4.430550e-01
4.418950e-01
4.458600e-01
4.401990e-01
4.352970e-01
4.275370e-01
4.138410e-01
4.049540e-01
4.014820e-01
3.983210e-01
3.944680e-01
3.928920e-01
3.906670e-01
3.911770e-01
4.020820e-01
4.867540e-01
4.915990e-01
5.016650e-01
4.945600e-01
4.830220e-01
4.718150e-01
4.636040e-01
4.538110e-01
4.506530e-01
4.544660e-01
4.569170e-01
4.603080e-01
4.622800e-01
4.661230e-01
4.698130e-01
4.535890e-01
4.584500e-01
4.639280e-01
4.666030e-01
4.730850e-01
4.785660e-01
4.819590e-01
4.883160e-01
4.989670e-01
5.004450e-01
4.900850e-01
5.017810e-01
6.403000e-01
5.047830e-01
3.952950e-01
3.935940e-01
4.146440e-01
4.102480e-01
4.084460e-01
4.072020e-01
4.076170e-01
4.143270e-01
4.217810e-01
4.275740e-01
4.311470e-01
4.276920e-01
4.268650e-01
4.374040e-01
4.459220e-01
4.452660e-01
4.450040e-01
4.474950e-01
4.463180e-01
4.477810e-01
4.499660e-01
4.536720e-01
4.741870e-01
4.987490e-01
5.119770e-01
4.705530e-01
6.130260e-01
5.574950e-01
5.605800e-01
5.015950e-01
5.395030e-01
4.767070e-01
4.570980e-01
4.311880e-01
4.237020e-01
4.163830e-01
4.076680e-01
4.082430e-01
4.124740e-01
4.137000e-01
4.174750e-01
4.211900e-01
4.233740e-01
4.259950e-01
4.278250e-01
4.319010e-01
4.353780e-01
5.018260e-01
4.945390e-01
4.018120e-01
4.006780e-01
4.032940e-01
4.038880e-01
4.221880e-01
4.128310e-01
4.121900e-01
4.121340e-01
4.166000e-01
4.208470e-01
4.335230e-01
4.312900e-01
4.201240e-01
4.171690e-01
4.116660e-01
4.078470e-01
4.033550e-01
3.990670e-01
3.981070e-01
3.990840e-01
3.978890e-01
4.002460e-01
4.008960e-01
4.062810e-01
4.147370e-01
4.283460e-01
4.330290e-01
4.377170e-01
4.406830e-01
4.416130e-01
4.392290e-01
4.407350e-01
4.375200e-01
4.374590e-01
4.405710e-01
4.411880e-01
4.442840e-01
4.487360e-01
4.493520e-01
4.481780e-01
4.504860e-01
4.806150e-01
4.952300e-01
4.917320e-01
4.917650e-01
4.863900e-01
4.860890e-01
4.908940e-01
4.875510e-01
4.819680e-01
4.791290e-01
4.729790e-01
4.707170e-01
4.757520e-01
4.685620e-01
4.691250e-01
4.655290e-01
4.669570e-01
4.700340e-01
4.744380e-01
4.796660e-01
4.851200e-01
4.865040e-01
4.717000e-01
4.792340e-01
4.857150e-01
4.918140e-01
4.945120e-01
4.940840e-01
5.194040e-01
5.243210e-01
5.190320e-01
5.842350e-01
5.728710e-01
6.189060e-01
5.877310e-01
5.519010e-01
5.454320e-01
5.492180e-01
5.436730e-01
5.348640e-01
5.372540e-01
5.361540e-01
5.262770e-01
5.131300e-01
5.148580e-01
5.162080e-01
4.748650e-01
4.927210e-01
4.937970e-01
4.923840e-01
4.926460e-01
4.932190e-01
4.854470e-01
4.866200e-01
4.844880e-01
4.948490e-01
4.743030e-01
4.762420e-01
4.740460e-01
4.732140e-01
4.670710e-01
4.604730e-01
4.559830e-01
4.499080e-01
4.444520e-01
4.384430e-01
4.380750e-01
4.416750e-01
4.444730e-01
4.410360e-01
4.357350e-01
4.278260e-01
4.165970e-01
4.097430e-01
4.046810e-01
4.070560e-01
4.004620e-01
3.962690e-01
3.931530e-01
3.965930e-01
3.928420e-01
3.971800e-01
3.964140e-01
4.510500e-01
4.565110e-01
4.627930e-01
4.653970e-01
4.724760e-01
4.771920e-01
4.835320e-01
4.858430e-01
4.955680e-01
4.214550e-01
4.125380e-01
4.109240e-01
4.121500e-01
4.156920e-01
4.161660e-01
4.258170e-01
4.174150e-01
4.101870e-01
4.062630e-01
4.092700e-01
4.096360e-01
4.042770e-01
4.015850e-01
4.006090e-01
4.006750e-01
4.023500e-01
4.002420e-01
4.032430e-01
4.039680e-01
4.098470e-01
4.192690e-01
4.231350e-01
4.268600e-01
4.321820e-01
4.365400e-01
4.385890e-01
4.358400e-01
4.393610e-01
4.390900e-01
4.344550e-01
4.380400e-01
4.394030e-01
4.435920e-01
4.516800e-01
4.478360e-01
4.504240e-01
4.495380e-01
4.487000e-01
4.901470e-01
4.962940e-01
4.889020e-01
4.806110e-01
4.677120e-01
4.623510e-01
4.579730e-01
4.550580e-01
4.545130e-01
4.578530e-01
4.583150e-01
4.665740e-01
4.699830e-01
4.685620e-01
4.700100e-01
4.019220e-01
4.022660e-01
4.018370e-01
4.026350e-01
4.042910e-01
4.107100e-01
4.160770e-01
4.234150e-01
4.300550e-01
4.329180e-01
4.339850e-01
4.292250e-01
4.378270e-01
4.412890e-01
4.407110e-01
4.401290e-01
4.447080e-01
4.509670e-01
4.485940e-01
4.524480e-01
4.585030e-01
4.884180e-01
5.085960e-01
5.645960e-01
4.405750e-01
6.304460e-01
5.497660e-01
5.575700e-01
5.420550e-01
5.346510e-01
4.925250e-01
4.896400e-01
4.932800e-01
4.893050e-01
4.695960e-01
4.545870e-01
4.328940e-01
4.203800e-01
4.137080e-01
4.078050e-01
4.101990e-01
4.122230e-01
4.135820e-01
4.134720e-01
4.132500e-01
4.164640e-01
4.170650e-01
4.181690e-01
4.174830e-01
4.188560e-01
5.332460e-01
5.241020e-01
5.140690e-01
5.039330e-01
5.038850e-01
4.988230e-01
4.979970e-01
4.885590e-01
4.922840e-01
4.894600e-01
4.911040e-01
4.851430e-01
4.860170e-01
4.725380e-01
4.842040e-01
4.911530e-01
4.900410e-01
4.766460e-01
4.710220e-01
4.695150e-01
4.683480e-01
4.642830e-01
4.692480e-01
4.651630e-01
4.661790e-01
4.663750e-01
4.663160e-01
4.639580e-01
4.624900e-01
4.642410e-01
4.620560e-01
4.635600e-01
4.658610e-01
4.647850e-01
4.658730e-01
4.689660e-01
4.720780e-01
4.741780e-01
4.696420e-01
4.700350e-01
4.682250e-01
4.647240e-01
4.586540e-01
4.524500e-01
4.448390e-01
4.394850e-01
4.386010e-01
4.426420e-01
4.407260e-01
4.363040e-01
4.287330e-01
4.202430e-01
4.138530e-01
4.093920e-01
4.115160e-01
4.902800e-01
4.831250e-01
4.765240e-01
4.672090e-01
4.662190e-01
4.592520e-01
4.582770e-01
4.572750e-01
4.613690e-01
4.643310e-01
4.665910e-01
4.688810e-01
4.680890e-01
4.538020e-01
4.601070e-01
4.657730e-01
4.723210e-01
4.127280e-01
4.114330e-01
4.118510e-01
4.142850e-01
4.122670e-01
5.363480e-01
5.427270e-01
5.278090e-01
5.222280e-01
5.269230e-01
4.726620e-01
4.547920e-01
4.325410e-01
4.192780e-01
4.112560e-01
4.095630e-01
4.096860e-01
4.107600e-01
4.121910e-01
4.134670e-01
4.119780e-01
4.124230e-01
4.118330e-01
4.139920e-01
4.138620e-01
4.134850e-01
4.121060e-01
4.640730e-01
4.663960e-01
4.605810e-01
4.625360e-01
4.638600e-01
4.627080e-01
4.622400e-01
4.596360e-01
4.593640e-01
4.581770e-01
4.561370e-01
4.584800e-01
4.588640e-01
4.580710e-01
4.599010e-01
4.573090e-01
4.623900e-01
4.654610e-01
4.643960e-01
4.687160e-01
4.724940e-01
4.810510e-01
4.891410e-01
4.952580e-01
4.900890e-01
5.071200e-01
5.037850e-01
5.504980e-01
4.582980e-01
5.420850e-01
5.740840e-01
5.321350e-01
4.863340e-01
4.838200e-01
4.864050e-01
4.833330e-01
4.854930e-01
4.802790e-01
4.795290e-01
4.737420e-01
4.681490e-01
4.701190e-01
4.679070e-01
4.686790e-01
4.616450e-01
4.670530e-01
4.745580e-01
4.174660e-01
4.180540e-01
4.222400e-01
4.258930e-01
4.311810e-01
4.344230e-01
5.195200e-01
5.207750e-01
5.155570e-01
5.062500e-01
5.010980e-01
4.948380e-01
4.854870e-01
4.857020e-01
4.859200e-01
4.876450e-01
4.808990e-01
4.770060e-01
4.706540e-01
4.757310e-01
4.811390e-01
4.818880e-01
4.793630e-01
4.838730e-01
4.840840e-01
4.779770e-01
4.803980e-01
4.794670e-01
4.749520e-01
4.742500e-01
4.690630e-01
4.669010e-01
4.653620e-01
4.658070e-01
4.586120e-01
4.612060e-01
4.710470e-01
4.732040e-01
4.695660e-01
4.675410e-01
4.661160e-01
4.632340e-01
4.621260e-01
4.537130e-01
4.465710e-01
4.409700e-01
4.420240e-01
4.338330e-01
4.366570e-01
4.367130e-01
4.381040e-01
4.411910e-01
4.420290e-01
4.478830e-01
4.553910e-01
4.523500e-01
4.476650e-01
4.530450e-01
4.512800e-01
4.105800e-01
4.090700e-01
4.079500e-01
4.076230e-01
4.060170e-01
4.052570e-01
4.044600e-01
4.027250e-01
4.033970e-01
4.066620e-01
4.043960e-01
4.022540e-01
4.071530e-01
4.128470e-01
4.593100e-01
4.621710e-01
4.631910e-01
4.610280e-01
4.627540e-01
4.648350e-01
4.663340e-01
4.688590e-01
4.704670e-01
4.692120e-01
4.400030e-01
4.367230e-01
4.305200e-01
4.232890e-01
4.178470e-01
4.155810e-01
4.134610e-01
4.158510e-01
4.185370e-01
4.248850e-01
4.320490e-01
4.349900e-01
4.383530e-01
4.380620e-01
4.607810e-01
4.605720e-01
4.602530e-01
4.574220e-01
4.572790e-01
4.558330e-01
4.534640e-01
4.533540e-01
4.527580e-01
4.504800e-01
4.512830e-01
4.559320e-01
4.529760e-01
4.505670e-01
4.507650e-01
4.569490e-01
4.582860e-01
4.595380e-01
4.626680e-01
4.667790e-01
4.775310e-01
4.877390e-01
4.956180e-01
4.999290e-01
5.034610e-01
4.844160e-01
5.399670e-01
4.660670e-01
5.404450e-01
5.439770e-01
5.870990e-01
5.108730e-01
5.099130e-01
4.965910e-01
5.189810e-01
5.151780e-01
5.147230e-01
5.104170e-01
5.089960e-01
4.989650e-01
4.912270e-01
4.872060e-01
4.800660e-01
4.808620e-01
4.769800e-01
4.808520e-01
4.094370e-01
4.090080e-01
4.095570e-01
4.775660e-01
4.574550e-01
4.341430e-01
4.154690e-01
4.112000e-01
4.072930e-01
4.087630e-01
4.088470e-01
4.107630e-01
4.093590e-01
4.087910e-01
4.101460e-01
4.091270e-01
4.125760e-01
4.107900e-01
4.095390e-01
4.558850e-01
4.483570e-01
4.529610e-01
4.518200e-01
4.561920e-01
4.561790e-01
4.611150e-01
4.713620e-01
4.612990e-01
4.624890e-01
4.955300e-01
5.309640e-01
5.343290e-01
5.122040e-01
6.351700e-01
5.319820e-01
5.462210e-01
5.420870e-01
4.708060e-01
4.710550e-01
4.663170e-01
4.686860e-01
4.658410e-01
4.614780e-01
4.587770e-01
4.518230e-01
4.443070e-01
4.414620e-01
4.416360e-01
4.373240e-01
4.331490e-01
4.267850e-01
4.210670e-01
4.204460e-01
4.177620e-01
4.234260e-01
4.212340e-01
4.291730e-01
4.370380e-01
4.390920e-01
4.439390e-01
4.158260e-01
4.188760e-01
4.226220e-01
4.273680e-01
4.296720e-01
4.325170e-01
4.361640e-01
4.354390e-01
4.406610e-01
4.409480e-01
4.453590e-01
4.519310e-01
4.554440e-01
4.710980e-01
4.631240e-01
4.651900e-01
4.722880e-01
4.717980e-01
4.784530e-01
4.821930e-01
4.823400e-01
4.771120e-01
4.785790e-01
4.739730e-01
4.792560e-01
4.722920e-01
4.730620e-01
4.517190e-01
4.519480e-01
4.500840e-01
4.477470e-01
4.483190e-01
4.468900e-01
4.462800e-01
4.444560e-01
4.487660e-01
4.473410e-01
4.446940e-01
4.455590e-01
4.494690e-01
4.514520e-01
4.527410e-01
4.579840e-01
4.629680e-01
4.744830e-01
4.876630e-01
4.960300e-01
5.004450e-01
4.991330e-01
4.806620e-01
5.187880e-01
5.743850e-01
5.554950e-01
5.556120e-01
5.656950e-01
5.495330e-01
5.629970e-01
5.047140e-01
5.028370e-01
4.928070e-01
5.063960e-01
5.082380e-01
5.073000e-01
5.013520e-01
4.975760e-01
4.925000e-01
4.852010e-01
4.800430e-01
4.739340e-01
4.724630e-01
4.779910e-01
4.651380e-01
4.095540e-01
4.075860e-01
4.081020e-01
4.065660e-01
4.057670e-01
4.081460e-01
4.090270e-01
4.106580e-01
4.111390e-01
4.080940e-01
4.092690e-01
4.077820e-01
4.070070e-01
4.133080e-01
4.553670e-01
4.580720e-01
4.611520e-01
4.660980e-01
4.644080e-01
4.684310e-01
4.688190e-01
4.676470e-01
4.686230e-01
4.707450e-01
4.759390e-01
4.073740e-01
4.076040e-01
4.078040e-01
4.069990e-01
4.060120e-01
4.105230e-01
4.104960e-01
4.082340e-01
4.073430e-01
4.471020e-01
4.470800e-01
4.443750e-01
4.419140e-01
4.437790e-01
4.416350e-01
4.414090e-01
4.364270e-01
4.400770e-01
4.418400e-01
4.397560e-01
4.425770e-01
4.428740e-01
4.440080e-01
4.469370e-01
4.522250e-01
4.608850e-01
4.701300e-01
4.879170e-01
4.959310e-01
4.989260e-01
4.865340e-01
4.810030e-01
5.125080e-01
5.725630e-01
5.564160e-01
5.256580e-01
4.666290e-01
6.079880e-01
5.608360e-01
4.913810e-01
5.292940e-01
5.021340e-01
5.007510e-01
5.007570e-01
4.993010e-01
4.948260e-01
4.862390e-01
4.872860e-01
4.790870e-01
4.732450e-01
4.698130e-01
4.633250e-01
4.547480e-01
4.651980e-01
4.711760e-01
4.682960e-01
4.141290e-01
4.177330e-01
4.241660e-01
4.278170e-01
4.296220e-01
4.365430e-01
4.368960e-01
4.398270e-01
4.430570e-01
4.908600e-01
6.104680e-01
6.708040e-01
5.581000e-01
5.048260e-01
4.869580e-01
5.045240e-01
5.006030e-01
5.366000e-01
4.699310e-01
4.709620e-01
4.726500e-01
4.697620e-01
4.711590e-01
4.662220e-01
4.630160e-01
4.542350e-01
4.491350e-01
4.449830e-01
4.438850e-01
4.419500e-01
4.386260e-01
4.354440e-01
4.306420e-01
4.232200e-01
4.241940e-01
4.233650e-01
4.272990e-01
4.311580e-01
4.321860e-01
4.444310e-01
4.498710e-01
4.385080e-01
4.373020e-01
4.089350e-01
4.100380e-01
4.049780e-01
4.050530e-01
4.046580e-01
4.085270e-01
4.084320e-01
4.135800e-01
4.147120e-01
4.108730e-01
4.136470e-01
4.112090e-01
4.085470e-01
4.110000e-01
4.716650e-01
4.669780e-01
4.581120e-01
4.632130e-01
4.695080e-01
4.685010e-01
4.766900e-01
4.779740e-01
4.732950e-01
4.750430e-01
4.739450e-01
4.746740e-01
4.732700e-01
4.679570e-01
4.598680e-01
4.557460e-01
4.366350e-01
4.137880e-01
4.097050e-01
4.947670e-01
5.068320e-01
6.483020e-01
5.575990e-01
5.787680e-01
5.475890e-01
5.458500e-01
5.048710e-01
5.109910e-01
4.948440e-01
4.683400e-01
4.528840e-01
4.353700e-01
4.113220e-01
4.188280e-01
4.253260e-01
4.426280e-01
4.407510e-01
4.390260e-01
4.390200e-01
4.375320e-01
4.336160e-01
4.307860e-01
4.329870e-01
4.348400e-01
4.375820e-01
4.340210e-01
4.355650e-01
4.376410e-01
4.393630e-01
4.472410e-01
4.567060e-01
4.665480e-01
4.869090e-01
4.940040e-01
4.941190e-01
4.825390e-01
4.814130e-01
5.132120e-01
5.413100e-01
5.565850e-01
5.175750e-01
4.876730e-01
4.444850e-01
4.386850e-01
4.394170e-01
4.337520e-01
4.297500e-01
4.272650e-01
4.302390e-01
4.349770e-01
4.331810e-01
4.370980e-01
4.402440e-01
4.387160e-01
4.418570e-01
4.477920e-01
4.537530e-01
4.704610e-01
4.695650e-01
4.714170e-01
4.731040e-01
4.727210e-01
4.829580e-01
4.048560e-01
4.564520e-01
4.535890e-01
4.574880e-01
4.570350e-01
4.527320e-01
4.589220e-01
4.648710e-01
4.715990e-01
4.693350e-01
4.728410e-01
4.716190e-01
4.730050e-01
4.675630e-01
4.577160e-01
4.540030e-01
4.487910e-01
4.518810e-01
4.496750e-01
4.519540e-01
4.534580e-01
4.485930e-01
4.449550e-01
4.414520e-01
4.376580e-01
4.354790e-01
4.303860e-01
4.349940e-01
4.402070e-01
4.438640e-01
4.454500e-01
4.041640e-01
4.073270e-01
4.065380e-01
4.071540e-01
4.092850e-01
4.109180e-01
4.110030e-01
4.108980e-01
4.132650e-01
4.180520e-01
4.101200e-01
4.132380e-01
4.147280e-01
4.519940e-01
4.434270e-01
4.416130e-01
4.396610e-01
4.365420e-01
4.475040e-01
4.450640e-01
4.459050e-01
4.232790e-01
4.270880e-01
4.297060e-01
4.331280e-01
4.385360e-01
4.406010e-01
4.374460e-01
4.377030e-01
4.287260e-01
4.253680e-01
4.254330e-01
4.284840e-01
4.294110e-01
4.327590e-01
4.290810e-01
4.284780e-01
4.308290e-01
4.320730e-01
4.409910e-01
4.506070e-01
4.646470e-01
4.833160e-01
4.901570e-01
4.932420e-01
4.888670e-01
4.860260e-01
5.055990e-01
5.451290e-01
5.962760e-01
5.426660e-01
5.687520e-01
4.952920e-01
5.777020e-01
4.749570e-01
4.838270e-01
4.710660e-01
4.862550e-01
4.926770e-01
4.823170e-01
4.781980e-01
4.797700e-01
4.726660e-01
4.652120e-01
4.580130e-01
4.507240e-01
4.476820e-01
4.497560e-01
5.076600e-01
5.117180e-01
4.967600e-01
5.042070e-01
4.857290e-01
4.630170e-01
4.535150e-01
4.374130e-01
4.234890e-01
4.211450e-01
4.152270e-01
4.913170e-01
5.028780e-01
4.935050e-01
4.928460e-01
4.767900e-01
4.661070e-01
4.537320e-01
4.377670e-01
4.274550e-01
4.199370e-01
4.158500e-01
4.065870e-01
4.071250e-01
4.452210e-01
4.470250e-01
4.523240e-01
4.573760e-01
4.705500e-01
4.746700e-01
4.788880e-01
4.527360e-01
4.634080e-01
4.661430e-01
4.693680e-01
4.625760e-01
4.081570e-01
4.083990e-01
4.119870e-01
4.119800e-01
4.115240e-01
4.153230e-01
4.155990e-01
4.185390e-01
4.185610e-01
4.162710e-01
4.195880e-01
4.253460e-01
4.307570e-01
4.345230e-01
4.325880e-01
4.969930e-01
4.953240e-01
4.483560e-01
4.523450e-01
4.567690e-01
4.616760e-01
4.701540e-01
4.777170e-01
4.866350e-01
4.652870e-01
4.791330e-01
4.692690e-01
4.559970e-01
4.399170e-01
4.305430e-01
4.207780e-01
4.158740e-01
4.127630e-01
4.093930e-01
4.067600e-01
4.075970e-01
4.094810e-01
4.134180e-01
4.129630e-01
4.129640e-01
4.192900e-01
4.200570e-01
4.206950e-01
4.220140e-01
4.187810e-01
4.243530e-01
4.251280e-01
4.221720e-01
4.255970e-01
4.253950e-01
4.232820e-01
4.243620e-01
4.342560e-01
4.451390e-01
4.648180e-01
4.066290e-01
4.272200e-01
4.169960e-01
4.201580e-01
4.269300e-01
4.611560e-01
4.134360e-01
4.211860e-01
4.124740e-01
4.127730e-01
4.135450e-01
6.023190e-01
4.937960e-01
5.569740e-01
5.344380e-01
5.940390e-01
6.146320e-01
4.866200e-01
4.775160e-01
4.314090e-01
4.193280e-01
4.658440e-01
4.426090e-01
5.161470e-01
5.390220e-01
5.479960e-01
4.743580e-01
4.812770e-01
4.833970e-01
5.714700e-01
6.157520e-01
4.608230e-01
4.666180e-01
4.140040e-01
3.990810e-01
4.163110e-01
4.138220e-01
4.886720e-01
4.920720e-01
4.790490e-01
4.849100e-01
5.073560e-01
4.786880e-01
4.806000e-01
4.859320e-01
5.040930e-01
4.991710e-01
4.059560e-01
4.020370e-01
4.038600e-01
4.078490e-01
4.009650e-01
3.993540e-01
4.006120e-01
3.929880e-01
3.973610e-01
4.055820e-01
4.131910e-01
4.290670e-01
4.085160e-01
4.141490e-01
4.185820e-01
4.985820e-01
4.929110e-01
5.063200e-01
4.580740e-01
4.511260e-01
4.519240e-01
4.647750e-01
4.628750e-01
4.607610e-01
4.554780e-01
4.480880e-01
4.684850e-01
4.675590e-01
4.728510e-01
4.913010e-01
5.039550e-01
5.033460e-01
4.650550e-01
4.592310e-01
4.444590e-01
4.498940e-01
4.110380e-01
4.117510e-01
4.136810e-01
4.535500e-01
4.589050e-01
4.616130e-01
4.108320e-01
4.087580e-01
4.067240e-01
4.098760e-01
4.071610e-01
4.058510e-01
4.320460e-01
4.285480e-01
4.270120e-01
5.668570e-01
4.749010e-01
4.616040e-01
4.877130e-01
4.807730e-01
4.835240e-01
5.627700e-01
5.826450e-01
4.553080e-01
4.600920e-01
4.551790e-01
4.565260e-01
4.390320e-01
4.405500e-01
6.540570e-01
5.413140e-01
5.822910e-01
6.539140e-01
6.212340e-01
7.050170e-01
6.996780e-01
6.085870e-01
5.597210e-01
5.514460e-01
5.737830e-01
5.693170e-01
6.293630e-01
6.559620e-01
6.081990e-01
5.528660e-01
5.564720e-01
5.781040e-01
6.581330e-01
7.022570e-01
6.787670e-01
6.384280e-01
6.428130e-01
6.394440e-01
5.961380e-01
5.914770e-01
6.388840e-01
6.077100e-01
5.734640e-01
5.845270e-01
5.400870e-01
5.662260e-01
5.847620e-01
6.349020e-01
6.261930e-01
6.236470e-01
6.138690e-01
6.290740e-01
5.539270e-01
5.387080e-01
5.634410e-01
5.628080e-01
5.849730e-01
5.874640e-01
6.181010e-01
6.726540e-01
6.225500e-01
6.267140e-01
5.960580e-01
6.144830e-01
6.245090e-01
6.295640e-01
6.356070e-01
6.285720e-01
6.081170e-01
5.999830e-01
6.005770e-01
5.887180e-01
5.852360e-01
6.049170e-01
5.806720e-01
4.924750e-01
4.965980e-01
4.995250e-01
5.109790e-01
5.226460e-01
5.278280e-01
5.308660e-01
5.387590e-01
5.405440e-01
5.536440e-01
5.599870e-01
5.625200e-01
5.698880e-01
5.704350e-01
5.584690e-01
5.521710e-01
5.631830e-01
6.117320e-01
5.740410e-01
5.605490e-01
5.679260e-01
5.452730e-01
5.442190e-01
5.988880e-01
5.487420e-01
5.520080e-01
5.542630e-01
5.567850e-01
5.540210e-01
5.594310e-01
5.632680e-01
5.642240e-01
5.617960e-01
5.560070e-01
5.568590e-01
5.529940e-01
5.387390e-01
5.414110e-01
5.360730e-01
5.307130e-01
5.159510e-01
5.139200e-01
5.482150e-01
5.356050e-01
5.706250e-01
5.622100e-01
6.047730e-01
6.149540e-01
6.431600e-01
5.926810e-01
6.925040e-01
6.287280e-01
5.884680e-01
5.659220e-01
5.279100e-01
5.287820e-01
5.179610e-01
5.094740e-01
5.035790e-01
5.065420e-01
4.934060e-01
5.125950e-01
4.866270e-01
5.033030e-01
4.804990e-01
4.917790e-01
4.908720e-01
4.744690e-01
4.893380e-01
4.743940e-01
4.883180e-01
4.732220e-01
4.893720e-01
4.747750e-01
4.889900e-01
4.907110e-01
4.799790e-01
4.916870e-01
4.835760e-01
4.938400e-01
4.889580e-01
4.971750e-01
4.932720e-01
4.987800e-01
5.035820e-01
5.008890e-01
5.049240e-01
5.039010e-01
5.105920e-01
5.176400e-01
5.090610e-01
5.244740e-01
5.188050e-01
5.261330e-01
5.178570e-01
5.195150e-01
5.164780e-01
5.041170e-01
5.066850e-01
4.978700e-01
5.016500e-01
4.914340e-01
4.951510e-01
4.868390e-01
4.808160e-01
6.971490e-01
6.603570e-01
6.301760e-01
6.032940e-01
6.502570e-01
6.548670e-01
6.746060e-01
6.896460e-01
6.902460e-01
7.046350e-01
6.469090e-01
6.532410e-01
6.748740e-01
6.570050e-01
6.337670e-01
6.865520e-01
5.476150e-01
6.437620e-01
7.018880e-01
6.047380e-01
6.422510e-01
6.237380e-01
6.036270e-01
5.772270e-01
6.182900e-01
6.395220e-01
6.361860e-01
6.901530e-01
5.588310e-01
5.596990e-01
5.788930e-01
5.977490e-01
6.329320e-01
6.069340e-01
7.494320e-01
5.552460e-01
5.530000e-01
5.593890e-01
5.493030e-01
6.211100e-01
5.507290e-01
5.502940e-01
5.590040e-01
5.608370e-01
5.537480e-01
6.029770e-01
6.836500e-01
6.704340e-01
5.540010e-01
5.628950e-01
5.791940e-01
5.814800e-01
5.985890e-01
6.474740e-01
5.918300e-01
5.583670e-01
6.810680e-01
6.271350e-01
5.700010e-01
6.067670e-01
5.993450e-01
5.767020e-01
5.911830e-01
5.639390e-01
5.467390e-01
5.590170e-01
5.995940e-01
6.060300e-01
6.250390e-01
5.817610e-01
6.126750e-01
5.927740e-01
5.636380e-01
5.409270e-01
5.421460e-01
5.393270e-01
5.647690e-01
5.867980e-01
6.078470e-01
6.267920e-01
6.522720e-01
6.357300e-01
6.003070e-01
6.253750e-01
6.281080e-01
6.332570e-01
6.386030e-01
6.503370e-01
6.317750e-01
6.223660e-01
6.161680e-01
6.088610e-01
6.056690e-01
6.006070e-01
5.999270e-01
6.186470e-01
6.661430e-01
6.859930e-01
6.193890e-01
5.871680e-01
6.030100e-01
5.325310e-01
5.424490e-01
5.526710e-01
5.772920e-01
5.980680e-01
6.302270e-01
6.504400e-01
7.517440e-01
6.914100e-01
6.747370e-01
6.468030e-01
6.041800e-01
6.087340e-01
5.667020e-01
5.601270e-01
5.499320e-01
5.483860e-01
5.320400e-01
5.286080e-01
5.250450e-01
5.239310e-01
5.132200e-01
5.130950e-01
5.084290e-01
5.065770e-01
5.040870e-01
4.966620e-01
4.990310e-01
4.961800e-01
4.959310e-01
4.943000e-01
4.963560e-01
5.009540e-01
4.991030e-01
4.979790e-01
5.019280e-01
4.994080e-01
5.047440e-01
5.037800e-01
5.104060e-01
5.083230e-01
5.157600e-01
5.156410e-01
5.124320e-01
5.199320e-01
5.174250e-01
5.220850e-01
5.237030e-01
5.203860e-01
5.273780e-01
5.287190e-01
5.372900e-01
5.301290e-01
5.367850e-01
5.316770e-01
5.202350e-01
5.173170e-01
5.135340e-01
5.114390e-01
5.067940e-01
5.022450e-01
4.995510e-01
4.967330e-01
5.056330e-01
5.834370e-01
6.409000e-01
6.951530e-01
6.831080e-01
7.055560e-01
6.657150e-01
6.705130e-01
7.023640e-01
6.730860e-01
6.278680e-01
5.683030e-01
6.235290e-01
6.563490e-01
6.968710e-01
6.136860e-01
5.908710e-01
5.828540e-01
5.412800e-01
5.926040e-01
6.286500e-01
6.224310e-01
5.847120e-01
5.895100e-01
5.957840e-01
5.985670e-01
6.086070e-01
6.473270e-01
7.197260e-01
6.659650e-01
5.578680e-01
6.649730e-01
6.658060e-01
6.605330e-01
6.475380e-01
6.678830e-01
6.653010e-01
6.717350e-01
6.617390e-01
6.771990e-01
6.682730e-01
5.655580e-01
6.162480e-01
6.444050e-01
6.402960e-01
6.054630e-01
5.916300e-01
5.693040e-01
5.663320e-01
5.442710e-01
5.576280e-01
5.849890e-01
5.832040e-01
5.918890e-01
6.126900e-01
6.150870e-01
6.164760e-01
6.222260e-01
6.479210e-01
6.566900e-01
6.607570e-01
5.457590e-01
5.644870e-01
5.651020e-01
5.810230e-01
5.753110e-01
5.971070e-01
6.016710e-01
5.997230e-01
5.961220e-01
5.914270e-01
5.818930e-01
5.736980e-01
5.684280e-01
5.609320e-01
5.139540e-01
5.219340e-01
5.330810e-01
5.362070e-01
5.533150e-01
5.446470e-01
5.704140e-01
5.800650e-01
5.638630e-01
5.756420e-01
5.927760e-01
5.813240e-01
5.708850e-01
5.809340e-01
5.924440e-01
5.545700e-01
6.127090e-01
5.568230e-01
5.697460e-01
5.696450e-01
5.783440e-01
5.806830e-01
5.954330e-01
5.896840e-01
6.140380e-01
5.902690e-01
6.083500e-01
6.682320e-01
5.471690e-01
5.593140e-01
5.723670e-01
5.748070e-01
5.394640e-01
5.473810e-01
5.727020e-01
5.823410e-01
5.880320e-01
5.398660e-01
5.885640e-01
5.477220e-01
5.487030e-01
5.506610e-01
5.379730e-01
5.322650e-01
5.176640e-01
4.996570e-01
5.729590e-01
5.643360e-01
6.306610e-01
6.122900e-01
5.806410e-01
5.893370e-01
6.047520e-01
6.415710e-01
6.803860e-01
6.468370e-01
6.501150e-01
6.321760e-01
6.211800e-01
6.164680e-01
5.928430e-01
5.683010e-01
5.853140e-01
5.937720e-01
6.038100e-01
6.389450e-01
6.400050e-01
5.489880e-01
5.030360e-01
5.130780e-01
5.277240e-01
5.379220e-01
5.454640e-01
5.449840e-01
5.703280e-01
5.713940e-01
5.749120e-01
5.910650e-01
5.897690e-01
5.960530e-01
5.879310e-01
6.021010e-01
5.935250e-01
5.648740e-01
5.953680e-01
6.673900e-01
5.808360e-01
6.425090e-01
5.214120e-01
6.001900e-01
5.573030e-01
6.392580e-01
5.964380e-01
5.949770e-01
5.880660e-01
5.748320e-01
5.468490e-01
5.862140e-01
6.079440e-01
6.430970e-01
6.739680e-01
7.057550e-01
7.715870e-01
6.537460e-01
6.879800e-01
6.142230e-01
6.355760e-01
6.039540e-01
5.834120e-01
5.692100e-01
5.666640e-01
5.676510e-01
5.591730e-01
5.535980e-01
5.461010e-01
5.468880e-01
5.350530e-01
5.324140e-01
5.232790e-01
5.190420e-01
5.121030e-01
5.113280e-01
5.117250e-01
5.142600e-01
5.199980e-01
5.135340e-01
5.075500e-01
5.077920e-01
5.036200e-01
5.096940e-01
5.112930e-01
5.094070e-01
5.105770e-01
5.134390e-01
5.147430e-01
5.158310e-01
5.179060e-01
5.216760e-01
5.238490e-01
5.257700e-01
5.262430e-01
5.262280e-01
5.307310e-01
5.278160e-01
5.367530e-01
5.336370e-01
5.463280e-01
5.500770e-01
5.506990e-01
5.555510e-01
5.503190e-01
5.465940e-01
5.426600e-01
5.380300e-01
5.351100e-01
5.288540e-01
5.258760e-01
5.176000e-01
6.423120e-01
6.425530e-01
6.343070e-01
6.324500e-01
6.249810e-01
6.509690e-01
6.702500e-01
6.198850e-01
5.618180e-01
6.051140e-01
6.099930e-01
6.265880e-01
5.943560e-01
5.779360e-01
5.729460e-01
5.604580e-01
5.723030e-01
5.676430e-01
5.803150e-01
5.987470e-01
6.176640e-01
6.160240e-01
6.112350e-01
6.125280e-01
6.159650e-01
6.056570e-01
6.466680e-01
6.173230e-01
6.385580e-01
5.157820e-01
5.979130e-01
5.812940e-01
6.126450e-01
6.416970e-01
6.210290e-01
6.126440e-01
6.151920e-01
6.015820e-01
5.874910e-01
5.834060e-01
5.695840e-01
5.568830e-01
5.703080e-01
5.548620e-01
5.974130e-01
5.951490e-01
4.818340e-01
4.752120e-01
4.918730e-01
5.060190e-01
5.373630e-01
5.326430e-01
5.225640e-01
5.217780e-01
5.178260e-01
5.211730e-01
5.474410e-01
5.688220e-01
5.472030e-01
5.314730e-01
6.041830e-01
5.218870e-01
5.200080e-01
4.994460e-01
4.841850e-01
4.850210e-01
4.915150e-01
5.116900e-01
5.222660e-01
5.337110e-01
5.239470e-01
5.293430e-01
5.072520e-01
5.378140e-01
5.304430e-01
5.324900e-01
5.457800e-01
5.414980e-01
5.295320e-01
5.308740e-01
5.172180e-01
5.124740e-01
5.108200e-01
4.986170e-01
5.391270e-01
5.635470e-01
5.546570e-01
5.460480e-01
5.604230e-01
5.733840e-01
6.025210e-01
6.816520e-01
7.125030e-01
6.766710e-01
6.193820e-01
6.716370e-01
6.184810e-01
5.733970e-01
5.527900e-01
5.369340e-01
5.522260e-01
5.679770e-01
5.763820e-01
5.816620e-01
5.956820e-01
5.493750e-01
6.113250e-01
6.387200e-01
6.543120e-01
6.969150e-01
7.061670e-01
6.252850e-01
6.789410e-01
6.157000e-01
6.597990e-01
6.160980e-01
5.990990e-01
5.853400e-01
5.841870e-01
5.859410e-01
5.859430e-01
5.850580e-01
5.813610e-01
5.607920e-01
5.483640e-01
5.389570e-01
5.321370e-01
5.259580e-01
5.220550e-01
5.166220e-01
5.188340e-01
5.217650e-01
5.222950e-01
5.245160e-01
5.195690e-01
5.144620e-01
5.115950e-01
5.154910e-01
5.172460e-01
5.207120e-01
5.207380e-01
5.208840e-01
5.235370e-01
5.258750e-01
5.268350e-01
5.281110e-01
5.320710e-01
5.361290e-01
5.356300e-01
5.366600e-01
5.379820e-01
5.419660e-01
5.429340e-01
5.469580e-01
5.614260e-01
5.725980e-01
5.906190e-01
5.821050e-01
5.833300e-01
5.754110e-01
5.619410e-01
5.544160e-01
5.519760e-01
5.484720e-01
5.469330e-01
5.383840e-01
5.600940e-01
5.957940e-01
5.848840e-01
5.803440e-01
5.763020e-01
5.790910e-01
5.510820e-01
5.703450e-01
5.561580e-01
5.656820e-01
5.472210e-01
5.757080e-01
5.677490e-01
5.761180e-01
5.839950e-01
5.956150e-01
5.399730e-01
5.981830e-01
6.222100e-01
6.503810e-01
5.949580e-01
5.383640e-01
5.889710e-01
5.870910e-01
5.653440e-01
5.621870e-01
5.674530e-01
5.832200e-01
6.088720e-01
5.941520e-01
5.918800e-01
5.954340e-01
6.091060e-01
6.194950e-01
6.182910e-01
5.807510e-01
5.753360e-01
5.657790e-01
5.614880e-01
5.957510e-01
5.854710e-01
5.610110e-01
5.567480e-01
5.564270e-01
5.532580e-01
5.630040e-01
5.642820e-01
5.779160e-01
5.777850e-01
5.765810e-01
5.811470e-01
5.991170e-01
6.031020e-01
6.142410e-01
6.070810e-01
6.066730e-01
6.079460e-01
6.163890e-01
6.635180e-01
7.002330e-01
6.138680e-01
6.842950e-01
5.229200e-01
6.145320e-01
6.464350e-01
6.679930e-01
6.418580e-01
6.537780e-01
6.396000e-01
6.262950e-01
5.871320e-01
5.869900e-01
6.077870e-01
6.915730e-01
7.131240e-01
7.057480e-01
5.019500e-01
6.927590e-01
6.762480e-01
6.310380e-01
6.092280e-01
5.956760e-01
5.882800e-01
5.743740e-01
5.811800e-01
5.877230e-01
5.941540e-01
5.983560e-01
6.274620e-01
6.387160e-01
6.018120e-01
5.733240e-01
5.616080e-01
5.507330e-01
5.419000e-01
5.327750e-01
5.272810e-01
5.216930e-01
5.276960e-01
5.245970e-01
5.269520e-01
5.267620e-01
5.259810e-01
5.225540e-01
5.177800e-01
6.081420e-01
6.083310e-01
5.770210e-01
6.739960e-01
6.449760e-01
6.380560e-01
5.640850e-01
6.687950e-01
6.500260e-01
5.426380e-01
5.393750e-01
5.382230e-01
5.295560e-01
5.255680e-01
5.240940e-01
5.416460e-01
5.589240e-01
5.655430e-01
5.773620e-01
5.628850e-01
5.641040e-01
5.693270e-01
5.626140e-01
5.670440e-01
5.617470e-01
5.793550e-01
5.710410e-01
5.781380e-01
5.124140e-01
6.236750e-01
5.931820e-01
6.285770e-01
5.938700e-01
5.858160e-01
5.659720e-01
5.663630e-01
5.601730e-01
5.599760e-01
5.632290e-01
5.613060e-01
5.628290e-01
5.885150e-01
5.836300e-01
5.683320e-01
5.522520e-01
5.443000e-01
5.433710e-01
5.469920e-01
5.475720e-01
5.400410e-01
5.383930e-01
5.121860e-01
4.984500e-01
4.909060e-01
4.876700e-01
4.865420e-01
4.994920e-01
5.082410e-01
5.187210e-01
5.195810e-01
5.149000e-01
5.173670e-01
5.358260e-01
5.389870e-01
5.358350e-01
5.375680e-01
5.285570e-01
5.268280e-01
5.135720e-01
5.038210e-01
5.007050e-01
4.999830e-01
5.200760e-01
5.211590e-01
5.250120e-01
5.266420e-01
5.287490e-01
5.302710e-01
5.323080e-01
5.326870e-01
5.365320e-01
5.372670e-01
5.407590e-01
5.445110e-01
5.444080e-01
5.453060e-01
5.488210e-01
5.546200e-01
5.586950e-01
5.781490e-01
6.069630e-01
6.336500e-01
6.173230e-01
6.226430e-01
5.831140e-01
5.760990e-01
5.652990e-01
5.580630e-01
5.591730e-01
5.241210e-01
5.291290e-01
5.318660e-01
5.342140e-01
5.414530e-01
5.838900e-01
6.126210e-01
6.288850e-01
5.679120e-01
5.425520e-01
5.358790e-01
5.298830e-01
5.270140e-01
5.240790e-01
5.191200e-01
5.160680e-01
5.324570e-01
5.522960e-01
5.683170e-01
5.843040e-01
5.679490e-01
5.663700e-01
5.662000e-01
5.684230e-01
5.680320e-01
5.618810e-01
5.485900e-01
5.611510e-01
5.997150e-01
6.110810e-01
5.869080e-01
5.509000e-01
5.835950e-01
5.849780e-01
5.900690e-01
6.176720e-01
5.503240e-01
5.591690e-01
5.631970e-01
5.601810e-01
5.599320e-01
5.619660e-01
5.884260e-01
5.902180e-01
5.757770e-01
5.642560e-01
5.592430e-01
5.581100e-01
5.626720e-01
5.736220e-01
5.409820e-01
5.438930e-01
5.532130e-01
5.542700e-01
5.609520e-01
5.663250e-01
5.663270e-01
5.911470e-01
6.563170e-01
6.565510e-01
6.289480e-01
5.211360e-01
6.037130e-01
5.975190e-01
5.823550e-01
6.827840e-01
5.472220e-01
6.194460e-01
5.642430e-01
5.831040e-01
5.894240e-01
5.793820e-01
5.849890e-01
5.831140e-01
5.767730e-01
5.791290e-01
5.843820e-01
5.897310e-01
5.940260e-01
6.270740e-01
6.425680e-01
5.966320e-01
5.816590e-01
5.683070e-01
5.523490e-01
5.454450e-01
5.353500e-01
5.295760e-01
5.264780e-01
5.265570e-01
5.263090e-01
5.240090e-01
5.278340e-01
5.279400e-01
5.286290e-01
5.250310e-01
5.503190e-01
5.547820e-01
5.585450e-01
5.584780e-01
5.783570e-01
5.963780e-01
5.961000e-01
5.919510e-01
5.427730e-01
5.456950e-01
5.941090e-01
5.987580e-01
5.962370e-01
6.046250e-01
6.157260e-01
6.013350e-01
6.217850e-01
6.038080e-01
6.125590e-01
5.290550e-01
5.328260e-01
5.335750e-01
5.364160e-01
5.380200e-01
5.399810e-01
5.418410e-01
5.437040e-01
5.454160e-01
5.474650e-01
5.530220e-01
5.491850e-01
5.475400e-01
5.488920e-01
5.510100e-01
5.524370e-01
5.553040e-01
5.636450e-01
5.753270e-01
5.852000e-01
6.105640e-01
6.543470e-01
6.529570e-01
6.008100e-01
5.961770e-01
5.844090e-01
5.729590e-01
5.114050e-01
5.183520e-01
5.229900e-01
5.250170e-01
5.327710e-01
5.153340e-01
4.898680e-01
4.695030e-01
5.148720e-01
5.298740e-01
5.317040e-01
5.338170e-01
5.320910e-01
5.277640e-01
5.245080e-01
5.180910e-01
5.096650e-01
5.085650e-01
5.287080e-01
5.495420e-01
5.678140e-01
5.387110e-01
5.353460e-01
5.467780e-01
5.516810e-01
5.582540e-01
5.688690e-01
5.723140e-01
6.262080e-01
6.235210e-01
5.762090e-01
5.934510e-01
5.980340e-01
6.047130e-01
6.048420e-01
5.994130e-01
6.051580e-01
6.223100e-01
6.191910e-01
6.397650e-01
6.194960e-01
6.319160e-01
6.132580e-01
6.197350e-01
5.267350e-01
5.068800e-01
4.960530e-01
4.925680e-01
4.916030e-01
4.924130e-01
4.980700e-01
5.026850e-01
5.090070e-01
5.078820e-01
5.124640e-01
5.057260e-01
5.177510e-01
5.277370e-01
5.385930e-01
5.391230e-01
5.347120e-01
5.312860e-01
5.304430e-01
5.223320e-01
5.119650e-01
5.080350e-01
5.924680e-01
5.750390e-01
5.735100e-01
5.966540e-01
5.145980e-01
5.966590e-01
5.941930e-01
5.973500e-01
5.983410e-01
5.744980e-01
5.565030e-01
5.873010e-01
5.891670e-01
5.518340e-01
5.426700e-01
5.437470e-01
5.450150e-01
5.454650e-01
5.850480e-01
5.860870e-01
5.971290e-01
6.161890e-01
5.883830e-01
5.731790e-01
5.607870e-01
5.503400e-01
5.438680e-01
5.346100e-01
5.304840e-01
5.264080e-01
5.242640e-01
5.240910e-01
5.221650e-01
5.227620e-01
5.233980e-01
5.264220e-01
5.301960e-01
5.269270e-01
5.310530e-01
5.355680e-01
5.371580e-01
5.388760e-01
5.416830e-01
5.450850e-01
5.464900e-01
5.481460e-01
5.784230e-01
5.805240e-01
5.751590e-01
6.157530e-01
5.816400e-01
5.669940e-01
5.455860e-01
5.316580e-01
5.335970e-01
5.538240e-01
5.547490e-01
5.774290e-01
5.805530e-01
5.863640e-01
6.105770e-01
5.792480e-01
5.656530e-01
5.826600e-01
5.889170e-01
5.550680e-01
5.530190e-01
5.504850e-01
5.519330e-01
5.544630e-01
5.594150e-01
5.642040e-01
5.679310e-01
5.808800e-01
5.901480e-01
5.983590e-01
6.319360e-01
6.275860e-01
5.881280e-01
6.288600e-01
5.820250e-01
5.581400e-01
5.659550e-01
5.705420e-01
5.632700e-01
5.611420e-01
5.568630e-01
5.533220e-01
5.684420e-01
5.589690e-01
5.531900e-01
5.488360e-01
5.475890e-01
5.449490e-01
5.431140e-01
5.355090e-01
5.936330e-01
5.958800e-01
6.070720e-01
6.217070e-01
6.178850e-01
6.096430e-01
5.439930e-01
5.380880e-01
5.341170e-01
5.310520e-01
5.297210e-01
5.223350e-01
5.164940e-01
5.797260e-01
5.698760e-01
5.959160e-01
5.939870e-01
5.207590e-01
5.205750e-01
5.227440e-01
5.201640e-01
4.956730e-01
4.819350e-01
5.083430e-01
5.179460e-01
5.237020e-01
5.238990e-01
5.293420e-01
5.311910e-01
5.245130e-01
5.185920e-01
5.175460e-01
5.078290e-01
5.088390e-01
5.094640e-01
5.266950e-01
5.469180e-01
5.444570e-01
5.448550e-01
5.462620e-01
5.453320e-01
5.428680e-01
5.413950e-01
5.413930e-01
5.450570e-01
5.406510e-01
5.395990e-01
5.322620e-01
5.190880e-01
5.063660e-01
4.984840e-01
4.905150e-01
4.897440e-01
4.901490e-01
4.912740e-01
4.941450e-01
5.016290e-01
6.008660e-01
5.769160e-01
5.299920e-01
5.257570e-01
5.256010e-01
5.178700e-01
5.161590e-01
5.189580e-01
5.220100e-01
5.256080e-01
5.315910e-01
5.295240e-01
5.340920e-01
5.337910e-01
5.393580e-01
5.397290e-01
5.444600e-01
5.468150e-01
5.496450e-01
5.512330e-01
5.517910e-01
5.506460e-01
5.253970e-01
5.208700e-01
5.238900e-01
5.230330e-01
5.175160e-01
5.143820e-01
5.059950e-01
5.138060e-01
5.164460e-01
5.207750e-01
5.258940e-01
5.308140e-01
5.329840e-01
5.343100e-01
5.331530e-01
5.390130e-01
5.402880e-01
5.459680e-01
5.474000e-01
5.507260e-01
5.532300e-01
5.539600e-01
5.538630e-01
5.545740e-01
5.556710e-01
5.550800e-01
5.552200e-01
5.624350e-01
5.685430e-01
5.691350e-01
5.789090e-01
5.783820e-01
5.881800e-01
5.810520e-01
6.244080e-01
6.591220e-01
4.987040e-01
5.345640e-01
5.260460e-01
5.176010e-01
5.055360e-01
4.964800e-01
4.936040e-01
4.878050e-01
4.845160e-01
4.855360e-01
4.850190e-01
4.887250e-01
4.976100e-01
5.061270e-01
5.066450e-01
5.374270e-01
5.335270e-01
5.245280e-01
5.138860e-01
5.058530e-01
5.020100e-01
4.946550e-01
4.898940e-01
4.845450e-01
4.788410e-01
4.761900e-01
4.794700e-01
4.861310e-01
4.932580e-01
4.983050e-01
5.066590e-01
5.229770e-01
5.336370e-01
5.607430e-01
5.660670e-01
5.691080e-01
5.662170e-01
5.627280e-01
5.601900e-01
5.502990e-01
5.467610e-01
5.251250e-01
5.215900e-01
5.175550e-01
5.068910e-01
4.890000e-01
4.833150e-01
4.940850e-01
5.053600e-01
5.153680e-01
5.276930e-01
5.195660e-01
5.209400e-01
5.224050e-01
5.207090e-01
5.164780e-01
5.141860e-01
5.084690e-01
4.991230e-01
4.999620e-01
5.081900e-01
5.280460e-01
5.454400e-01
5.330320e-01
5.379240e-01
5.384060e-01
5.351860e-01
5.301040e-01
5.318210e-01
5.250270e-01
5.222200e-01
5.297770e-01
5.389940e-01
5.297440e-01
5.281760e-01
5.298550e-01
6.434960e-01
6.250830e-01
6.019290e-01
6.126460e-01
5.329840e-01
5.324990e-01
5.368250e-01
5.390220e-01
5.445850e-01
5.476320e-01
5.519810e-01
5.524690e-01
5.538940e-01
5.581050e-01
5.567870e-01
5.527920e-01
5.557020e-01
5.545540e-01
6.028930e-01
5.711140e-01
5.877570e-01
5.776830e-01
5.912130e-01
5.633450e-01
6.082390e-01
5.801000e-01
5.731360e-01
5.717870e-01
5.687740e-01
5.658500e-01
5.623750e-01
5.516010e-01
5.468730e-01
5.456810e-01
5.456630e-01
5.474900e-01
5.471230e-01
5.471280e-01
5.429140e-01
5.391810e-01
5.203300e-01
5.055990e-01
4.912220e-01
4.795130e-01
4.736000e-01
4.815050e-01
4.969960e-01
5.021140e-01
5.132040e-01
5.144850e-01
5.153890e-01
5.175690e-01
5.165110e-01
5.158860e-01
5.174230e-01
5.121010e-01
5.069490e-01
5.015440e-01
4.880000e-01
4.929400e-01
5.087560e-01
5.248110e-01
5.393360e-01
5.362140e-01
5.305930e-01
5.300720e-01
5.280820e-01
5.621770e-01
5.686480e-01
5.698730e-01
5.772870e-01
5.763380e-01
5.694570e-01
5.903610e-01
5.694150e-01
4.945760e-01
5.211540e-01
5.246020e-01
5.236790e-01
5.214870e-01
5.196700e-01
5.183400e-01
5.237220e-01
5.218570e-01
5.296310e-01
5.466200e-01
5.499170e-01
5.142530e-01
5.611410e-01
5.660740e-01
5.782420e-01
5.846700e-01
5.835300e-01
5.789010e-01
6.146060e-01
5.974230e-01
5.810980e-01
5.849150e-01
5.755270e-01
5.696720e-01
5.658660e-01
5.621280e-01
5.531810e-01
5.497610e-01
5.515610e-01
5.494610e-01
5.492810e-01
5.342480e-01
5.261950e-01
5.267180e-01
5.233350e-01
5.248290e-01
5.202930e-01
5.163190e-01
5.211870e-01
5.162520e-01
5.039250e-01
5.014800e-01
5.061320e-01
5.131630e-01
5.165750e-01
5.235040e-01
5.256330e-01
5.287390e-01
5.566800e-01
5.549860e-01
5.561750e-01
5.530480e-01
5.555410e-01
5.587670e-01
5.683800e-01
5.685840e-01
5.718180e-01
5.737440e-01
4.944260e-01
4.802820e-01
4.691400e-01
4.660340e-01
4.706560e-01
4.860720e-01
5.030030e-01
5.054580e-01
5.070530e-01
5.088800e-01
5.130850e-01
5.122640e-01
5.133570e-01
5.141750e-01
5.137370e-01
5.039740e-01
4.936990e-01
4.965530e-01
5.101770e-01
5.491000e-01
5.486230e-01
5.460390e-01
5.458130e-01
5.382010e-01
5.325960e-01
5.113620e-01
5.114080e-01
5.173600e-01
5.124590e-01
5.182770e-01
5.205750e-01
5.185370e-01
4.871700e-01
5.763020e-01
5.708450e-01
5.793680e-01
6.012650e-01
6.082720e-01
5.917590e-01
5.620080e-01
5.545310e-01
5.519170e-01
5.528880e-01
5.537840e-01
5.236360e-01
5.238510e-01
5.214780e-01
5.105870e-01
5.066270e-01
5.059070e-01
5.071350e-01
5.007260e-01
4.944770e-01
4.976020e-01
5.075060e-01
5.120250e-01
5.172710e-01
5.219030e-01
5.249040e-01
5.274430e-01
5.298700e-01
5.321530e-01
5.372330e-01
5.423450e-01
5.452910e-01
5.514210e-01
5.543780e-01
5.530080e-01
4.925820e-01
4.913090e-01
5.567700e-01
5.567460e-01
5.489300e-01
5.529280e-01
5.587140e-01
5.657400e-01
5.748540e-01
5.873190e-01
5.218700e-01
5.101090e-01
5.096450e-01
5.046080e-01
5.015660e-01
4.903540e-01
4.825420e-01
4.766560e-01
4.713480e-01
4.701800e-01
4.724120e-01
4.725290e-01
4.635290e-01
4.615440e-01
4.884520e-01
4.939580e-01
5.000360e-01
5.052090e-01
5.086900e-01
5.029870e-01
5.024850e-01
5.074980e-01
5.094630e-01
5.130360e-01
5.237110e-01
5.449050e-01
5.351110e-01
5.294970e-01
5.173070e-01
5.152910e-01
5.129020e-01
5.083970e-01
5.067730e-01
4.955500e-01
4.875840e-01
4.781300e-01
4.700920e-01
4.642220e-01
4.632680e-01
4.631360e-01
4.696740e-01
5.525940e-01
5.474970e-01
5.394410e-01
5.377190e-01
5.330390e-01
5.235000e-01
5.195460e-01
5.188700e-01
5.160240e-01
5.177200e-01
5.133510e-01
5.040500e-01
4.958530e-01
4.875840e-01
4.768150e-01
4.686350e-01
4.629530e-01
4.594730e-01
4.715570e-01
4.825120e-01
4.926910e-01
4.641190e-01
4.987240e-01
5.031370e-01
5.075490e-01
5.122350e-01
5.142000e-01
5.121300e-01
5.135720e-01
5.062450e-01
5.144040e-01
5.096820e-01
5.076380e-01
5.008410e-01
4.971670e-01
4.886120e-01
4.923820e-01
5.009120e-01
5.043880e-01
5.108610e-01
5.100360e-01
5.173170e-01
5.205440e-01
5.248020e-01
5.252740e-01
5.271330e-01
5.275420e-01
5.332490e-01
5.395580e-01
5.441800e-01
5.474330e-01
5.480790e-01
5.407910e-01
5.375010e-01
5.334650e-01
5.288870e-01
5.259680e-01
5.219290e-01
5.192500e-01
5.200790e-01
5.193820e-01
5.132970e-01
5.149070e-01
5.186990e-01
5.162410e-01
5.181830e-01
5.225220e-01
5.247990e-01
5.249350e-01
5.378840e-01
5.639740e-01
5.704360e-01
5.556460e-01
5.645230e-01
5.204360e-01
5.160380e-01
5.081430e-01
5.078660e-01
5.022800e-01
4.969510e-01
5.886420e-01
5.855620e-01
5.792770e-01
5.753010e-01
6.365760e-01
5.533900e-01
6.604570e-01
5.949700e-01
5.868870e-01
6.470630e-01
5.870470e-01
5.361490e-01
5.418230e-01
5.361040e-01
6.113360e-01
6.023270e-01
6.138710e-01
5.666410e-01
5.744260e-01
5.939090e-01
4.886630e-01
4.877020e-01
4.771800e-01
4.803210e-01
5.518590e-01
5.493930e-01
5.528910e-01
5.545510e-01
5.528830e-01
5.560810e-01
5.540670e-01
5.533290e-01
5.647090e-01
5.514490e-01
5.466570e-01
5.513220e-01
5.689470e-01
5.742690e-01
5.789870e-01
5.675250e-01
5.728520e-01
5.771600e-01
4.682370e-01
5.314680e-01
5.264910e-01
5.461670e-01
5.539080e-01
5.519600e-01
5.551900e-01
5.543910e-01
5.599510e-01
5.610450e-01
5.545290e-01
6.122960e-01
5.307560e-01
5.562650e-01
5.539180e-01
5.646310e-01
5.761860e-01
5.916310e-01
5.881340e-01
5.887800e-01
5.363520e-01
5.255930e-01
5.858690e-01
5.594340e-01
5.985610e-01
6.916610e-01
7.071900e-01
5.687710e-01
6.358700e-01
5.633680e-01
5.811590e-01
5.958380e-01
6.302090e-01
6.165750e-01
6.212380e-01
6.320310e-01
6.601700e-01
6.219720e-01
5.346210e-01
5.705800e-01
6.334710e-01
5.795630e-01
6.536380e-01
7.494930e-01
4.649730e-01
4.703940e-01
4.817620e-01
4.942680e-01
5.058420e-01
5.152040e-01
5.193500e-01
5.229860e-01
5.192830e-01
5.485070e-01
5.524740e-01
5.405300e-01
5.338510e-01
5.453270e-01
5.367490e-01
5.280930e-01
5.635210e-01
5.273800e-01
5.274110e-01
5.280670e-01
7.170470e-01
6.591930e-01
6.719770e-01
7.005170e-01
6.272500e-01
6.163990e-01
5.941030e-01
5.943340e-01
5.958320e-01
5.748960e-01
5.468770e-01
5.649040e-01
5.727350e-01
6.670240e-01
6.896330e-01
6.664200e-01
6.460670e-01
6.156490e-01
6.231680e-01
6.523900e-01
6.509030e-01
6.572180e-01
6.631500e-01
6.365400e-01
6.614920e-01
7.029030e-01
6.489050e-01
5.888910e-01
5.789910e-01
5.703840e-01
5.808650e-01
5.519010e-01
6.043530e-01
6.081110e-01
5.996760e-01
6.233510e-01
6.592020e-01
6.442750e-01
6.414330e-01
6.375900e-01
6.029910e-01
5.892990e-01
5.792490e-01
5.967770e-01
5.709340e-01
5.702330e-01
5.509850e-01
5.300600e-01
5.538430e-01
5.618150e-01
5.996780e-01
5.113620e-01
4.614370e-01
4.996560e-01
4.569790e-01
4.899590e-01
4.533420e-01
4.858200e-01
4.538810e-01
4.855430e-01
4.533190e-01
4.508280e-01
4.823530e-01
4.513130e-01
4.822450e-01
4.505780e-01
4.792770e-01
4.558450e-01
4.839850e-01
4.546320e-01
4.864260e-01
4.587290e-01
4.899830e-01
4.581670e-01
4.898720e-01
4.570500e-01
4.872320e-01
4.556380e-01
4.839320e-01
4.554110e-01
4.810310e-01
4.539150e-01
4.779620e-01
4.532870e-01
4.771590e-01
4.499490e-01
4.772080e-01
4.493090e-01
4.778550e-01
4.481130e-01
4.786150e-01
4.480360e-01
4.758530e-01
4.494510e-01
4.765660e-01
4.487800e-01
4.790840e-01
4.498290e-01
6.366300e-01
6.526270e-01
6.069710e-01
5.852470e-01
5.683120e-01
6.112440e-01
6.149640e-01
6.136800e-01
6.429400e-01
6.596690e-01
6.063270e-01
5.721510e-01
5.446740e-01
5.223430e-01
5.267560e-01
5.285280e-01
5.473420e-01
5.414880e-01
5.653660e-01
5.627150e-01
5.681870e-01
5.951760e-01
5.790350e-01
5.446470e-01
5.539630e-01
5.629110e-01
6.024440e-01
6.159620e-01
5.586330e-01
6.167960e-01
5.889680e-01
6.208620e-01
6.537270e-01
5.880090e-01
6.437760e-01
6.221840e-01
6.437140e-01
6.283920e-01
5.665830e-01
5.155440e-01
5.284170e-01
6.044020e-01
6.110830e-01
7.226490e-01
7.862160e-01
6.352500e-01
6.327870e-01
6.291640e-01
6.331870e-01
5.883340e-01
5.935310e-01
5.484140e-01
5.493340e-01
5.870670e-01
6.192180e-01
6.721730e-01
6.976150e-01
6.977070e-01
6.484030e-01
6.394850e-01
6.721670e-01
6.836220e-01
6.696880e-01
6.264350e-01
6.463210e-01
6.661230e-01
6.401250e-01
6.063670e-01
5.854920e-01
5.972900e-01
5.747680e-01
5.567010e-01
5.519750e-01
6.037220e-01
6.160200e-01
6.120130e-01
6.193360e-01
6.331800e-01
6.266130e-01
6.380930e-01
6.247750e-01
6.047840e-01
5.770310e-01
5.772730e-01
5.486440e-01
5.507450e-01
5.338460e-01
5.238530e-01
5.558180e-01
5.803940e-01
6.244120e-01
6.087210e-01
5.169050e-01
5.076970e-01
7.117120e-01
7.440450e-01
5.039330e-01
4.994890e-01
4.804190e-01
4.765870e-01
4.723290e-01
4.726530e-01
4.718460e-01
4.722150e-01
4.682990e-01
4.715180e-01
4.723470e-01
4.710800e-01
4.747120e-01
4.728590e-01
4.732580e-01
4.763920e-01
4.766640e-01
4.730010e-01
4.792540e-01
4.800310e-01
4.838010e-01
4.837990e-01
4.851790e-01
4.840710e-01
4.846710e-01
4.836250e-01
4.809730e-01
4.759020e-01
4.726400e-01
4.673980e-01
4.682240e-01
4.691380e-01
4.634480e-01
4.675430e-01
4.642250e-01
4.668720e-01
4.646440e-01
4.653040e-01
4.632350e-01
4.649010e-01
4.641100e-01
4.694500e-01
4.698730e-01
4.684670e-01
4.704990e-01
4.714000e-01
4.833850e-01
4.926610e-01
5.025790e-01
5.099470e-01
5.120630e-01
5.125190e-01
5.011540e-01
5.129380e-01
5.330080e-01
5.317910e-01
5.266100e-01
5.235150e-01
5.178820e-01
5.232860e-01
4.885020e-01
5.083080e-01
5.042940e-01
5.161860e-01
6.363340e-01
5.179920e-01
5.315910e-01
5.251160e-01
5.327470e-01
5.689430e-01
5.873790e-01
6.138880e-01
5.899980e-01
5.660440e-01
5.501800e-01
5.243890e-01
5.853550e-01
5.685030e-01
5.693890e-01
5.408980e-01
6.058830e-01
6.018750e-01
5.935550e-01
5.606160e-01
5.171680e-01
4.926110e-01
4.989850e-01
5.216750e-01
5.530040e-01
5.196960e-01
5.316260e-01
5.432160e-01
5.845490e-01
7.273700e-01
7.065740e-01
6.118970e-01
6.903680e-01
5.811150e-01
6.024930e-01
6.097290e-01
5.970080e-01
5.716980e-01
5.525790e-01
5.317270e-01
5.604560e-01
6.148270e-01
6.765460e-01
5.431320e-01
5.348980e-01
5.788710e-01
6.194820e-01
6.521270e-01
6.465110e-01
6.379470e-01
6.149700e-01
6.157120e-01
6.312510e-01
6.211680e-01
6.047140e-01
6.102900e-01
5.946620e-01
5.775790e-01
5.697390e-01
5.957730e-01
5.795660e-01
5.861910e-01
5.881290e-01
5.987760e-01
5.930000e-01
5.791360e-01
6.006190e-01
5.966040e-01
5.798640e-01
5.509240e-01
5.191410e-01
5.223180e-01
5.201230e-01
5.049960e-01
4.950080e-01
5.448610e-01
5.262660e-01
5.280410e-01
5.233210e-01
5.247960e-01
5.137990e-01
5.122830e-01
5.126200e-01
5.011240e-01
5.017280e-01
4.972620e-01
5.125360e-01
4.810360e-01
4.550620e-01
4.918050e-01
5.165510e-01
5.347970e-01
5.505870e-01
5.265080e-01
5.155430e-01
5.324970e-01
5.473120e-01
5.523900e-01
5.417630e-01
5.534320e-01
4.797650e-01
4.888630e-01
4.974470e-01
5.044580e-01
5.046710e-01
5.051730e-01
5.104880e-01
5.051190e-01
4.846680e-01
4.893170e-01
4.858940e-01
5.054400e-01
4.794750e-01
4.740000e-01
5.138830e-01
5.142900e-01
5.238130e-01
4.904910e-01
4.855400e-01
4.796730e-01
4.793080e-01
4.776190e-01
4.771110e-01
4.795440e-01
4.793210e-01
4.836040e-01
4.788610e-01
4.793460e-01
4.829300e-01
4.837300e-01
4.855260e-01
4.811940e-01
4.856260e-01
4.814740e-01
4.871920e-01
4.896220e-01
4.959360e-01
4.991560e-01
4.991190e-01
5.012100e-01
4.988340e-01
5.017920e-01
4.941550e-01
4.870830e-01
4.759110e-01
4.734580e-01
4.718400e-01
4.705140e-01
4.686390e-01
4.692840e-01
4.716750e-01
4.696390e-01
4.711310e-01
4.694650e-01
4.696140e-01
4.700840e-01
4.700100e-01
4.713490e-01
4.755230e-01
4.755390e-01
5.349800e-01
4.975920e-01
5.288000e-01
5.286120e-01
5.259620e-01
5.103400e-01
4.996910e-01
4.995880e-01
5.039770e-01
5.130690e-01
5.308300e-01
5.357370e-01
5.405470e-01
5.336720e-01
5.432270e-01
5.016950e-01
6.552260e-01
6.732350e-01
6.337810e-01
6.568830e-01
5.853840e-01
5.355810e-01
5.553710e-01
5.812450e-01
5.970530e-01
5.803620e-01
5.520720e-01
5.539390e-01
5.483340e-01
5.406080e-01
5.419370e-01
5.349870e-01
4.961660e-01
5.051090e-01
5.511530e-01
5.628090e-01
6.023260e-01
6.227740e-01
6.380270e-01
6.199000e-01
6.271860e-01
6.341810e-01
6.216180e-01
6.267400e-01
6.148770e-01
5.930440e-01
5.829970e-01
5.805170e-01
5.657060e-01
5.739220e-01
5.736240e-01
5.831460e-01
5.755720e-01
5.688160e-01
5.526040e-01
5.196540e-01
4.909710e-01
4.917220e-01
4.835640e-01
5.076000e-01
5.286260e-01
5.171060e-01
5.034250e-01
5.006280e-01
5.125640e-01
5.066440e-01
5.089560e-01
5.127050e-01
5.136400e-01
5.027400e-01
5.036510e-01
4.960300e-01
4.933750e-01
4.892980e-01
4.884340e-01
5.135020e-01
5.248020e-01
4.848360e-01
4.916500e-01
4.954030e-01
4.981840e-01
4.988430e-01
4.944620e-01
4.874330e-01
4.824640e-01
4.791880e-01
4.829570e-01
4.741370e-01
4.827360e-01
4.788610e-01
4.951840e-01
5.069990e-01
4.908300e-01
4.746990e-01
4.631800e-01
4.722400e-01
4.882500e-01
4.845300e-01
4.736580e-01
4.815400e-01
5.083970e-01
5.321800e-01
5.313930e-01
5.063900e-01
5.015030e-01
4.827040e-01
4.840330e-01
4.839630e-01
4.828540e-01
4.842890e-01
4.863750e-01
4.891540e-01
4.873270e-01
4.867750e-01
4.893720e-01
4.872270e-01
4.903520e-01
4.885690e-01
4.895220e-01
4.904410e-01
4.933070e-01
4.967480e-01
5.073720e-01
5.130280e-01
5.129220e-01
5.141410e-01
5.123400e-01
5.111100e-01
5.074570e-01
4.908590e-01
4.831310e-01
4.750100e-01
4.765280e-01
4.737260e-01
4.746590e-01
4.711240e-01
4.754860e-01
4.745710e-01
4.763720e-01
4.759630e-01
4.735760e-01
4.735470e-01
4.747120e-01
4.761780e-01
4.815650e-01
5.181630e-01
5.257420e-01
5.152320e-01
4.999310e-01
5.034590e-01
5.158000e-01
5.108230e-01
5.149340e-01
5.257420e-01
5.298110e-01
5.394080e-01
5.424090e-01
5.408080e-01
5.335180e-01
5.434560e-01
5.819530e-01
5.991480e-01
6.342400e-01
6.337350e-01
6.912440e-01
5.456300e-01
5.146650e-01
5.460380e-01
5.330060e-01
5.542220e-01
5.733380e-01
5.667100e-01
5.398710e-01
5.474510e-01
5.485630e-01
6.192520e-01
6.641150e-01
6.415200e-01
6.924790e-01
5.496490e-01
5.376270e-01
4.964770e-01
5.095990e-01
5.326700e-01
5.196740e-01
5.458250e-01
5.528360e-01
5.480670e-01
5.467470e-01
5.440550e-01
5.403910e-01
5.302630e-01
5.338790e-01
5.373570e-01
5.215950e-01
5.044640e-01
5.394180e-01
5.540520e-01
6.044990e-01
6.288700e-01
6.368350e-01
6.202780e-01
6.160080e-01
6.137440e-01
6.121720e-01
5.983490e-01
5.779530e-01
5.669960e-01
5.658660e-01
5.639050e-01
5.658250e-01
5.663880e-01
5.658130e-01
5.556680e-01
5.408510e-01
5.234220e-01
5.023810e-01
4.864080e-01
4.822840e-01
4.737480e-01
4.971650e-01
5.005260e-01
5.079610e-01
5.188050e-01
5.209070e-01
5.279670e-01
5.252150e-01
5.059240e-01
4.925190e-01
5.035350e-01
4.942890e-01
5.006630e-01
5.012600e-01
5.085230e-01
5.015010e-01
4.998890e-01
4.946920e-01
4.897060e-01
4.864590e-01
4.859520e-01
4.892990e-01
4.902300e-01
4.900180e-01
4.871150e-01
4.832480e-01
4.775710e-01
4.779460e-01
4.738880e-01
4.796210e-01
4.764490e-01
4.825300e-01
4.896970e-01
4.885340e-01
4.849430e-01
4.760930e-01
4.732620e-01
4.747600e-01
4.953930e-01
5.087230e-01
5.126680e-01
5.139290e-01
4.985330e-01
4.923530e-01
4.994400e-01
5.205670e-01
5.266100e-01
5.225890e-01
4.896900e-01
4.912840e-01
4.888980e-01
4.884690e-01
4.926440e-01
4.924030e-01
4.933700e-01
4.948110e-01
4.943230e-01
4.923150e-01
4.941440e-01
4.943440e-01
4.936110e-01
4.965560e-01
4.977190e-01
5.018360e-01
5.115370e-01
5.200580e-01
5.195380e-01
5.168390e-01
5.151430e-01
5.091700e-01
5.110810e-01
4.952870e-01
4.812780e-01
4.787430e-01
4.762750e-01
4.750620e-01
4.770360e-01
4.768190e-01
4.776020e-01
4.785810e-01
4.803230e-01
4.790860e-01
4.786130e-01
4.790850e-01
4.782220e-01
4.825440e-01
5.314860e-01
5.167480e-01
5.175110e-01
5.105250e-01
5.952010e-01
5.838060e-01
5.682220e-01
5.529210e-01
5.492790e-01
5.520990e-01
5.520120e-01
5.539430e-01
5.571150e-01
5.403470e-01
5.233090e-01
5.090950e-01
4.990200e-01
4.907280e-01
4.829870e-01
4.744570e-01
4.814430e-01
4.875100e-01
4.922040e-01
4.989710e-01
5.099760e-01
5.174830e-01
5.195010e-01
5.245390e-01
5.243550e-01
5.248900e-01
4.982240e-01
5.384090e-01
5.412630e-01
5.707360e-01
6.213390e-01
6.506980e-01
6.700990e-01
7.165010e-01
5.655250e-01
5.759800e-01
5.546780e-01
5.230200e-01
5.001880e-01
5.126900e-01
5.072480e-01
5.331640e-01
5.378570e-01
5.359730e-01
5.407440e-01
5.392200e-01
5.340350e-01
5.295330e-01
5.292990e-01
5.233070e-01
5.408490e-01
5.420810e-01
5.320580e-01
5.803360e-01
5.537720e-01
4.987040e-01
4.969350e-01
4.976440e-01
4.980810e-01
4.961180e-01
4.984550e-01
4.971370e-01
4.943070e-01
4.837990e-01
4.854590e-01
4.848410e-01
4.829010e-01
4.802030e-01
4.792840e-01
4.751690e-01
4.757560e-01
4.731890e-01
4.781800e-01
4.799050e-01
4.837010e-01
4.841220e-01
4.825520e-01
4.813120e-01
4.843920e-01
4.857980e-01
4.992530e-01
5.087090e-01
5.128140e-01
5.524270e-01
5.985340e-01
6.177210e-01
6.273260e-01
6.057000e-01
4.928110e-01
4.944670e-01
4.933690e-01
4.949640e-01
4.955050e-01
4.989930e-01
4.997340e-01
4.977060e-01
4.975880e-01
4.971620e-01
4.975980e-01
4.980440e-01
5.000750e-01
5.007910e-01
5.024150e-01
5.056120e-01
5.276910e-01
5.246670e-01
5.369360e-01
5.386290e-01
5.254650e-01
5.155050e-01
4.851270e-01
4.810160e-01
4.791970e-01
4.774440e-01
4.763930e-01
4.784690e-01
4.797660e-01
4.807740e-01
4.815140e-01
4.833970e-01
4.799780e-01
4.825790e-01
4.817470e-01
4.810470e-01
5.111760e-01
5.213750e-01
5.277100e-01
5.153560e-01
4.830320e-01
4.836660e-01
4.832200e-01
4.813540e-01
4.795720e-01
4.782420e-01
4.763430e-01
4.769190e-01
4.774510e-01
4.793560e-01
4.816060e-01
4.827670e-01
4.845850e-01
4.874400e-01
4.924780e-01
5.029320e-01
5.155910e-01
6.048780e-01
5.763530e-01
5.424840e-01
5.344040e-01
5.223260e-01
5.106520e-01
5.029490e-01
5.013450e-01
4.934200e-01
4.838960e-01
4.808200e-01
4.845320e-01
4.885310e-01
4.948230e-01
5.006600e-01
5.041930e-01
5.108780e-01
5.181150e-01
5.195080e-01
5.194250e-01
5.089560e-01
5.147970e-01
5.115900e-01
5.124070e-01
5.173380e-01
5.095980e-01
5.127750e-01
5.436990e-01
5.811950e-01
5.903790e-01
5.345270e-01
5.412390e-01
5.526710e-01
5.476560e-01
5.507000e-01
5.754300e-01
5.806700e-01
5.851990e-01
6.542440e-01
7.212220e-01
6.852320e-01
6.380860e-01
6.468710e-01
5.074270e-01
5.228810e-01
5.185460e-01
5.080290e-01
5.100520e-01
5.270250e-01
5.284480e-01
5.288700e-01
5.364750e-01
5.345170e-01
5.285510e-01
5.283270e-01
5.236990e-01
5.307760e-01
5.383050e-01
5.557420e-01
5.513810e-01
5.367300e-01
4.946740e-01
4.974190e-01
4.975200e-01
4.986390e-01
4.983230e-01
5.013630e-01
5.024240e-01
5.011460e-01
5.014950e-01
4.972650e-01
5.018170e-01
4.991450e-01
5.019260e-01
5.023830e-01
5.001600e-01
5.012720e-01
5.007930e-01
5.446630e-01
5.457880e-01
5.611600e-01
5.482640e-01
4.833560e-01
4.770800e-01
4.805960e-01
4.793610e-01
4.766880e-01
4.776980e-01
4.800280e-01
4.824640e-01
4.841230e-01
4.821580e-01
4.840100e-01
4.836370e-01
4.849540e-01
4.835650e-01
5.062490e-01
5.032820e-01
5.013140e-01
5.001040e-01
4.953450e-01
5.036120e-01
5.163830e-01
5.244300e-01
5.216280e-01
5.154990e-01
5.157250e-01
5.139570e-01
5.041910e-01
4.932870e-01
4.879830e-01
4.870270e-01
4.909610e-01
4.963310e-01
5.027590e-01
5.069240e-01
5.053630e-01
5.058400e-01
5.093860e-01
5.142650e-01
5.174990e-01
5.210780e-01
5.142710e-01
5.118150e-01
5.081800e-01
5.024610e-01
4.996850e-01
4.997400e-01
4.993650e-01
5.097530e-01
5.340570e-01
5.379630e-01
5.453290e-01
5.395990e-01
5.636640e-01
5.684410e-01
5.781320e-01
6.543780e-01
7.181180e-01
6.681360e-01
7.023700e-01
5.492830e-01
5.648900e-01
5.448580e-01
6.565420e-01
6.863390e-01
6.730220e-01
6.701980e-01
7.058430e-01
4.937490e-01
4.941470e-01
5.106450e-01
5.091680e-01
5.181850e-01
5.237670e-01
5.220640e-01
5.235120e-01
5.292460e-01
5.255970e-01
5.123520e-01
5.019600e-01
5.003480e-01
5.051610e-01
5.011220e-01
5.060950e-01
5.051730e-01
5.042130e-01
5.009940e-01
5.039520e-01
5.004640e-01
5.029960e-01
5.026140e-01
5.038100e-01
5.013570e-01
5.032260e-01
5.591090e-01
5.585440e-01
5.715630e-01
5.685100e-01
4.836280e-01
4.818080e-01
4.855050e-01
4.796500e-01
4.765520e-01
4.776700e-01
4.810960e-01
4.865050e-01
4.858210e-01
4.840990e-01
4.857370e-01
4.855780e-01
4.853800e-01
4.833930e-01
4.830190e-01
4.824530e-01
4.829330e-01
4.815260e-01
4.803910e-01
4.812370e-01
4.819470e-01
4.830670e-01
4.871270e-01
4.901230e-01
4.942880e-01
5.220460e-01
5.112070e-01
5.057590e-01
5.055620e-01
5.159780e-01
5.260650e-01
5.120810e-01
5.024980e-01
5.313520e-01
5.022480e-01
4.959670e-01
4.956500e-01
4.960440e-01
5.015120e-01
5.079640e-01
5.115090e-01
5.148300e-01
5.102550e-01
5.088670e-01
5.091550e-01
5.091150e-01
5.124870e-01
5.167910e-01
5.156420e-01
5.136550e-01
5.076220e-01
5.051520e-01
5.043210e-01
5.044300e-01
5.283490e-01
5.205050e-01
5.020550e-01
5.063390e-01
5.032120e-01
5.075860e-01
5.071680e-01
5.062200e-01
5.016030e-01
5.074980e-01
5.035760e-01
5.014150e-01
5.018210e-01
5.055110e-01
5.085680e-01
5.101010e-01
6.023530e-01
5.845900e-01
5.770030e-01
5.971000e-01
4.959240e-01
4.947200e-01
4.898000e-01
4.753780e-01
4.770440e-01
4.785350e-01
4.846230e-01
4.864200e-01
4.869710e-01
4.881050e-01
4.865440e-01
4.871960e-01
4.857620e-01
4.852850e-01
4.841320e-01
4.853080e-01
4.870710e-01
4.847690e-01
4.876240e-01
4.918880e-01
4.966150e-01
5.004980e-01
5.041730e-01
5.006190e-01
4.996940e-01
5.017780e-01
5.084520e-01
5.113880e-01
5.123980e-01
5.128750e-01
5.113670e-01
5.145400e-01
5.110120e-01
5.084200e-01
5.104910e-01
5.114010e-01
5.135800e-01
5.119530e-01
5.101980e-01
5.085790e-01
5.060190e-01
4.890120e-01
4.875990e-01
4.881880e-01
4.892500e-01
4.936150e-01
4.955670e-01
4.988660e-01
5.037290e-01
5.095170e-01
5.193410e-01
5.226960e-01
5.246430e-01
5.315310e-01
5.314830e-01
5.242070e-01
5.131390e-01
4.908470e-01
5.773440e-01
7.151580e-01
6.703900e-01
6.555860e-01
6.699460e-01
6.561150e-01
6.115240e-01
4.959210e-01
4.853610e-01
4.950290e-01
5.035910e-01
5.045220e-01
5.059650e-01
5.097780e-01
5.162540e-01
5.146780e-01
5.173240e-01
5.164680e-01
5.047320e-01
5.043560e-01
5.063050e-01
5.084970e-01
5.075210e-01
5.033310e-01
5.112420e-01
5.059950e-01
5.037250e-01
5.049530e-01
5.154920e-01
5.250950e-01
5.589760e-01
5.741210e-01
6.029260e-01
5.903970e-01
5.641650e-01
5.595940e-01
5.237230e-01
4.942140e-01
4.800960e-01
4.787320e-01
4.831060e-01
4.868710e-01
4.880430e-01
4.895450e-01
4.897450e-01
4.875200e-01
5.126840e-01
5.134160e-01
5.125940e-01
5.099190e-01
5.072300e-01
5.071450e-01
5.075320e-01
5.070100e-01
5.089640e-01
5.061830e-01
5.091510e-01
5.088990e-01
5.071610e-01
5.064340e-01
5.108140e-01
5.352880e-01
5.409460e-01
5.745920e-01
6.151390e-01
6.084500e-01
6.017830e-01
5.704100e-01
5.250520e-01
4.856450e-01
4.857840e-01
4.829020e-01
4.861840e-01
4.904730e-01
4.901760e-01
4.924580e-01
4.926890e-01
4.907530e-01
4.919740e-01
4.935360e-01
4.974810e-01
4.979430e-01
5.033280e-01
5.101670e-01
5.082020e-01
5.118870e-01
5.136800e-01
5.156480e-01
5.150430e-01
5.183350e-01
5.084240e-01
4.925330e-01
4.974410e-01
4.811530e-01
6.775370e-01
6.477250e-01
5.116140e-01
5.110990e-01
5.116580e-01
5.130780e-01
5.140100e-01
5.102630e-01
5.122090e-01
5.079440e-01
5.095030e-01
5.099610e-01
5.097630e-01
6.530000e-01
6.253340e-01
5.337780e-01
4.842910e-01
6.291320e-01
4.842300e-01
4.897910e-01
4.833500e-01
4.931780e-01
4.925430e-01
4.924620e-01
4.946110e-01
4.941530e-01
5.782850e-01
4.977880e-01
4.966220e-01
4.998450e-01
5.076230e-01
5.002520e-01
5.188590e-01
4.923440e-01
4.950770e-01
5.049390e-01
5.042700e-01
5.094860e-01
5.094510e-01
5.104680e-01
5.126320e-01
5.250220e-01
5.085270e-01
4.994120e-01
5.058160e-01
5.063390e-01
5.097090e-01
5.121890e-01
5.104910e-01
5.048990e-01
5.091100e-01
5.097190e-01
5.126690e-01
5.102210e-01
5.113820e-01
5.092680e-01
5.077500e-01
5.079080e-01
5.071470e-01
5.041970e-01
4.932580e-01
4.826360e-01
4.924790e-01
4.934380e-01
5.014430e-01
4.953410e-01
4.979340e-01
4.974460e-01
5.003040e-01
5.025260e-01
6.384220e-01
6.451830e-01
6.187780e-01
6.297630e-01
5.392540e-01
5.538860e-01
5.597960e-01
5.446610e-01
5.757620e-01
5.714120e-01
5.171320e-01
5.062470e-01
5.273700e-01
5.347300e-01
5.278230e-01
5.177250e-01
5.298920e-01
5.260120e-01
5.338160e-01
5.286350e-01
5.086000e-01
5.092200e-01
5.126950e-01
5.109690e-01
5.086620e-01
5.389220e-01
5.408140e-01
5.410060e-01
5.412280e-01
SCALARS Max_Princ_Stress_SP1(MPa) float 1
LOOKUP_TABLE default
0.007855
0.000928
0.000016
0.001649
0.016625
0.001010
0.000000
0.000000
0.000000
0.001803
0.000000
0.000204
0.000000
0.000532
0.000897
0.000530
0.000269
0.000000
0.000746
0.000000
0.000000
0.000000
0.000567
0.000048
0.000000
0.000000
0.000000
0.000000
0.000000
0.000000
0.001302
0.003262
0.000923
0.000177
0.002283
0.001105
0.001051
0.003290
0.003561
0.009358
0.006738
0.002632
0.005748
0.007443
0.002115
0.001580
0.000000
0.007197
0.006330
0.008581
0.010344
0.007274
0.000000
0.002950
0.001952
0.003642
0.005121
0.004502
0.002269
0.010271
0.000663
0.002916
0.003097
0.006054
0.009541
0.000248
0.002498
0.011171
0.007131
0.001304
0.001289
0.000288
0.000534
0.000752
0.001271
0.000042
0.000000
0.000000
0.001077
0.005899
0.008379
0.007276
0.002318
0.000000
0.003218
0.004115
0.000125
0.000000
0.000860
0.000125
0.000075
0.000000
0.000594
0.000144
0.000823
0.007771
0.000334
0.000000
0.000000
0.001585
0.001491
0.003080
0.000128
0.007606
0.009639
0.007921
0.008923
0.005435
0.011678
0.015261
0.018399
0.015345
0.016511
0.006293
0.005893
0.013084
0.018690
0.021809
0.035860
0.000948
0.000791
0.000000
0.000358
0.023618
0.011131
0.007746
0.013178
0.008193
0.003011
0.000691
0.000350
0.002360
0.000703
0.001972
0.001718
0.000781
0.000000
0.003223
0.003989
0.002961
0.001170
0.000223
0.000051
0.000000
0.000662
0.000284
0.000000
0.000231
0.000000
0.000194
0.000393
0.000796
0.000013
0.003374
0.001021
0.001223
0.000000
0.005661
0.000000
0.001403
0.010703
0.000000
0.000059
0.000169
0.001108
0.003201
0.002534
0.002013
0.000000
0.000000
0.000095
0.000988
0.000010
0.000022
0.000054
0.000732
0.002775
0.004912
0.000372
0.000000
0.000000
0.000000
0.000000
0.000000
0.000000
0.000000
0.000000
0.002139
0.000073
0.002831
0.001678
0.000832
0.003332
0.002072
0.002221
0.008259
0.006709
0.002147
0.002308
0.003370
0.000592
0.023293
0.010732
0.003817
0.010833
0.002881
0.001328
0.001575
0.014275
0.022831
0.007070
0.005098
0.002215
0.001774
0.014721
0.004181
0.015074
0.000000
0.001688
0.001107
0.010737
0.002488
0.001683
0.004335
0.001093
0.003944
0.002226
0.000155
0.000306
0.002194
0.005739
0.009216
0.001824
0.001770
0.010120
0.000010
0.000000
0.000000
0.001743
0.005430
0.000000
0.000000
0.000000
0.000219
0.000000
0.000000
0.000000
0.000000
0.000000
0.007055
0.002649
0.002755
0.000000
0.002889
0.000000
0.001134
0.001476
0.049825
0.019924
0.013881
0.024752
0.022773
0.018901
0.034599
0.039699
0.021196
0.023524
0.022232
0.018260
0.018514
0.029112
0.059042
0.003006
0.001648
0.001469
0.002049
0.053046
0.017879
0.011014
0.011630
0.005938
0.001635
0.001189
0.001462
0.003167
0.004313
0.039534
0.019974
0.003156
0.003717
0.014232
0.047235
0.011943
0.002216
0.002220
0.000517
0.000000
0.000544
0.000148
0.000000
0.000000
0.000000
0.000000
0.000407
0.000490
0.002566
0.021335
0.005494
0.000000
0.000000
0.001711
0.000000
0.002371
0.004339
0.000651
0.000696
0.001488
0.003275
0.004479
0.005993
0.000976
0.000742
0.000798
0.001278
0.000623
0.000629
0.000927
0.001463
0.004720
0.007280
0.000688
0.000751
0.001582
0.000799
0.000101
0.000000
0.000000
0.002903
0.000000
0.002235
0.000725
0.001964
0.008607
0.004275
0.024232
0.001099
0.001748
0.012668
0.005170
0.008478
0.008052
0.000000
0.015923
0.021298
0.005787
0.003849
0.001400
0.001466
0.001239
0.004290
0.011246
0.006575
0.002433
0.017848
0.001176
0.000441
0.004713
0.002161
0.009426
0.004795
0.011171
0.039499
0.026265
0.005343
0.008120
0.014372
0.006015
0.002114
0.009496
0.007996
0.003059
0.001525
0.001048
0.000000
0.000000
0.000000
0.000000
0.000708
0.001223
0.002040
0.001223
0.000070
0.002037
0.000000
0.000081
0.001393
0.001018
0.000507
0.000000
0.000000
0.000064
0.001458
0.018058
0.038089
0.031939
0.024018
0.027973
0.043676
0.045121
0.042414
0.038938
0.023988
0.021256
0.023996
0.028201
0.034022
0.015050
0.080669
0.071883
0.106483
0.086631
0.011510
0.027100
0.011930
0.004694
0.004839
0.002462
0.001916
0.001139
0.001840
0.012188
0.030936
0.119060
0.165516
0.131860
0.205001
0.043236
0.021326
0.006511
0.003994
0.002731
0.001052
0.001696
0.001068
0.001544
0.002594
0.011112
0.101836
0.052690
0.065088
0.093347
0.029524
0.013506
0.001796
0.000000
0.000852
0.001001
0.000076
0.000407
0.000428
0.000586
0.000576
0.000819
0.002104
0.001402
0.000180
0.000206
0.000214
0.000411
0.001796
0.000784
0.002457
0.001741
0.000696
0.000000
0.001791
0.000000
0.007384
0.005988
0.001598
0.001977
0.011395
0.001326
0.043396
0.005524
0.003727
0.033527
0.059189
0.031089
0.020671
0.023478
0.016621
0.024473
0.030168
0.032108
0.042369
0.046202
0.052886
0.057306
0.055696
0.056347
0.044417
0.037620
0.009780
0.034940
0.017619
0.041244
0.030588
0.049902
0.022850
0.037470
0.037964
0.025429
0.044239
0.024456
0.040137
0.036486
0.017046
0.033325
0.038451
0.020294
0.032592
0.041406
0.014040
0.027025
0.042411
0.025540
0.029964
0.030517
0.025101
0.024861
0.018805
0.024737
0.028423
0.014637
0.021447
0.023459
0.013392
0.026525
0.024695
0.014567
0.028966
0.047196
0.028107
0.038840
0.033959
0.042480
0.050095
0.041970
0.041669
0.066582
0.047932
0.070025
0.053721
0.090371
0.061480
0.071869
0.082335
0.079784
0.068253
0.081638
0.065699
0.076164
0.077148
0.062253
0.055621
0.049945
0.084857
0.030346
0.052711
0.061504
0.029339
0.035423
0.027072
0.035290
0.035242
0.027116
0.030563
0.020413
0.034621
0.039910
0.031984
0.053577
0.049092
0.042302
0.058891
0.066152
0.058061
0.069948
0.078779
0.051302
0.077677
0.070369
0.059647
0.083264
0.069114
0.060707
0.061110
0.067473
0.060137
0.067417
0.059861
0.042613
0.055700
0.051267
0.039152
0.043538
0.063228
0.031893
0.036150
0.047666
0.041347
0.021379
0.040679
0.018238
0.021578
0.021949
0.029665
0.018531
0.018788
0.029264
0.003801
0.001314
0.012044
0.026627
0.014547
0.008086
0.010711
0.013995
0.014306
0.009335
0.013945
0.005440
0.000379
0.006627
0.003053
0.004384
0.004367
0.001339
0.000036
0.000000
0.000000
0.000000
0.000528
0.000000
0.000000
0.000000
0.003746
0.000000
0.000688
0.000758
0.000913
0.000808
0.001678
0.001374
0.001454
0.000433
0.000301
0.000446
0.000609
0.000000
0.000000
0.033596
0.025458
0.035250
0.044720
0.053273
0.060211
0.074451
0.080611
0.084630
0.087378
0.091189
0.086274
0.079502
0.075927
0.069479
0.046311
0.001776
0.009572
0.005824
0.002415
0.001475
0.002325
0.010567
0.052894
0.035036
0.041745
0.004817
0.000760
0.010580
0.000000
0.000000
0.030514
0.072984
0.001379
0.001067
0.035236
0.040235
0.069240
0.044952
0.048842
0.042863
0.061102
0.033167
0.051233
0.036045
0.041370
0.046371
0.028369
0.031081
0.050876
0.043613
0.029339
0.041477
0.032054
0.037931
0.035306
0.046832
0.030537
0.043062
0.030168
0.018820
0.038678
0.039074
0.036296
0.035382
0.039829
0.020531
0.033001
0.026938
0.035251
0.039767
0.031958
0.037788
0.051474
0.049620
0.037785
0.045211
0.065276
0.037693
0.049518
0.036598
0.080866
0.077768
0.081318
0.079946
0.079381
0.075290
0.080827
0.077977
0.061022
0.093845
0.078591
0.066286
0.078142
0.070792
0.061455
0.067475
0.059601
0.073719
0.056942
0.080655
0.033144
0.048340
0.033487
0.043404
0.038828
0.047102
0.047191
0.056050
0.036730
0.048820
0.044141
0.049138
0.052160
0.061627
0.064750
0.071785
0.077362
0.061871
0.081754
0.072645
0.058404
0.078514
0.063726
0.082613
0.061078
0.061232
0.079664
0.050139
0.063582
0.075061
0.056767
0.073073
0.044255
0.044233
0.056402
0.055327
0.044505
0.053914
0.044887
0.044668
0.057634
0.037765
0.025731
0.060733
0.039596
0.026004
0.046262
0.031548
0.045087
0.023475
0.000000
0.019688
0.001968
0.025626
0.014108
0.029632
0.026159
0.038717
0.025742
0.020234
0.026061
0.010467
0.005687
0.000856
0.000000
0.000291
0.000000
0.003015
0.013962
0.001505
0.000000
0.000000
0.001838
0.016840
0.012842
0.008331
0.005034
0.006482
0.030968
0.050089
0.048895
0.054606
0.047250
0.163580
0.065722
0.000000
0.000000
0.000000
0.000000
0.000000
0.000062
0.000459
0.000884
0.000814
0.000807
0.002439
0.008231
0.004976
0.003340
0.071521
0.052671
0.055447
0.068535
0.057900
0.072691
0.052631
0.054276
0.051171
0.049665
0.048058
0.050296
0.039606
0.042006
0.058583
0.045447
0.040808
0.035923
0.045558
0.045753
0.047930
0.053729
0.039505
0.065240
0.032864
0.022172
0.037410
0.061293
0.056254
0.042876
0.044094
0.058990
0.034181
0.075288
0.035913
0.031442
0.049637
0.040101
0.051653
0.077991
0.037660
0.064175
0.041895
0.052185
0.053171
0.073725
0.066897
0.086936
0.067192
0.085701
0.062884
0.079066
0.090574
0.073326
0.076754
0.088308
0.065003
0.085507
0.066265
0.074343
0.067831
0.056731
0.065010
0.076221
0.066492
0.042132
0.062280
0.047344
0.065178
0.050616
0.057677
0.077171
0.062728
0.071643
0.028340
0.056771
0.075164
0.039464
0.048726
0.052620
0.049804
0.108426
0.059552
0.070445
0.066168
0.088101
0.072474
0.070085
0.064096
0.079744
0.079656
0.064953
0.072505
0.066296
0.051701
0.074522
0.103193
0.048327
0.052798
0.075399
0.037883
0.069057
0.063370
0.047672
0.070093
0.059182
0.055562
0.078682
0.041904
0.068202
0.053803
0.049676
0.031571
0.052416
0.051428
0.023630
0.002731
0.007389
0.010150
0.002779
0.026947
0.019240
0.026047
0.020721
0.038220
0.025990
0.017221
0.020029
0.012912
0.008482
0.009406
0.005092
0.006150
0.014208
0.027321
0.017606
0.074769
0.072233
0.075531
0.074929
0.082815
0.084324
0.087297
0.093876
0.101816
0.097627
0.089922
0.094764
0.088584
0.028621
0.015388
0.002998
0.036137
0.015369
0.010313
0.015858
0.009138
0.031386
0.009331
0.010422
0.008329
0.000526
0.016794
0.002687
0.015615
0.004120
0.002755
0.006718
0.012428
0.023055
0.139481
0.010383
0.004541
0.003338
0.006113
0.003077
0.002484
0.003963
0.006844
0.016438
0.052103
0.004348
0.003890
0.003203
0.003418
0.003048
0.000224
0.003175
0.006121
0.045007
0.006130
0.008043
0.016999
0.017559
0.031499
0.061092
0.113972
0.135493
0.001265
0.002560
0.014896
0.030490
0.015502
0.004965
0.001665
0.000852
0.027079
0.025459
0.021154
0.019006
0.045361
0.019998
0.030898
0.015022
0.007664
0.014812
0.007730
0.016596
0.000422
0.006845
0.021214
0.020734
0.050894
0.034488
0.019856
0.007966
0.014262
0.003791
0.024896
0.104050
0.123408
0.087178
0.076982
0.046133
0.034869
0.009686
0.003444
0.002861
0.007387
0.137837
0.084022
0.008502
0.090074
0.006217
0.003988
0.013761
0.006112
0.003020
0.002933
0.003864
0.002246
0.004167
0.002436
0.006482
0.028995
0.061320
0.057594
0.021672
0.002169
0.000000
0.003097
0.001971
0.010642
0.000690
0.001555
0.000000
0.000000
0.001986
0.001739
0.026502
0.028340
0.027022
0.024372
0.029048
0.040516
0.049591
0.044692
0.037426
0.033904
0.035386
0.032877
0.026450
0.037265
0.061588
0.038369
0.082961
0.106469
0.062203
0.041888
0.022819
0.024108
0.012234
0.007819
0.003533
0.002300
0.002358
0.003604
0.013027
0.062205
0.091917
0.137267
0.119545
0.162658
0.095959
0.032363
0.013123
0.015298
0.008239
0.002577
0.001479
0.003247
0.003270
0.006846
0.015555
0.064272
0.078577
0.052104
0.079027
0.014177
0.002849
0.004843
0.005301
0.018282
0.019439
0.096476
0.000000
0.010609
0.030619
0.013753
0.022239
0.024478
0.009812
0.018803
0.015291
0.023935
0.001851
0.010286
0.012601
0.015068
0.008162
0.018805
0.030246
0.057488
0.063488
0.102829
0.071921
0.046760
0.030332
0.005411
0.007300
0.008640
0.017744
0.029540
0.030269
0.011044
0.009003
0.006283
0.009251
0.006620
0.009131
0.025750
0.047160
0.052427
0.026965
0.042256
0.071808
0.135217
0.133661
0.158655
0.281499
0.098358
0.098673
0.061121
0.042740
0.068103
0.071182
0.090452
0.021663
0.022904
0.028651
0.030429
0.086414
0.052516
0.036429
0.036980
0.022588
0.077655
0.042524
0.073565
0.018123
0.080541
0.030627
0.051531
0.029568
0.036785
0.030795
0.050618
0.048560
0.105845
0.088537
0.057795
0.097958
0.037107
0.080126
0.021095
0.016813
0.008852
0.008085
0.022753
0.076260
0.089596
0.022155
0.041892
0.053974
0.090899
0.037910
0.091546
0.034688
0.005953
0.005622
0.005588
0.007823
0.008621
0.006701
0.005298
0.007249
0.006759
0.013462
0.033763
0.068563
0.069173
0.092273
0.125834
0.283069
0.045892
0.014146
0.012437
0.005593
0.004783
0.000975
0.036722
0.023720
0.010795
0.000000
0.000000
0.000000
0.000421
0.000542
0.000084
0.000469
0.000445
0.000719
0.001218
0.002613
0.006974
0.010151
0.036259
0.032462
0.044562
0.024527
0.020979
0.011089
0.028309
0.046842
0.061049
0.062440
0.066098
0.068043
0.100261
0.123580
0.071761
0.070124
0.075637
0.078079
0.068591
0.049970
0.053550
0.046426
0.059017
0.048947
0.058440
0.051903
0.042852
0.063007
0.044612
0.053057
0.045397
0.037286
0.057167
0.039760
0.054459
0.069734
0.051163
0.023910
0.073304
0.064268
0.062204
0.062285
0.079809
0.054580
0.068760
0.059595
0.060272
0.041792
0.045469
0.065473
0.072101
0.049630
0.069745
0.078345
0.038381
0.059171
0.058293
0.076083
0.072759
0.074777
0.066360
0.083128
0.092210
0.075207
0.075229
0.097786
0.080612
0.061926
0.086216
0.073094
0.085478
0.055305
0.071580
0.082693
0.076850
0.070928
0.066992
0.058945
0.063789
0.040772
0.078166
0.044000
0.100809
0.049844
0.062069
0.074023
0.049011
0.034032
0.062754
0.065768
0.045066
0.049013
0.053600
0.068766
0.082512
0.072299
0.053692
0.101595
0.063570
0.062320
0.088778
0.092116
0.060970
0.097693
0.071129
0.062639
0.074479
0.071657
0.099488
0.063510
0.098400
0.055540
0.095242
0.086367
0.052039
0.048163
0.080137
0.070713
0.055417
0.050539
0.064839
0.094350
0.061275
0.049160
0.075152
0.067121
0.055195
0.042390
0.008738
0.002194
0.006280
0.011550
0.024002
0.038538
0.124009
0.113260
0.118794
0.102799
0.094900
0.092686
0.089771
0.095097
0.095708
0.103936
0.085550
0.004676
0.010999
0.018654
0.019665
0.023776
0.022250
0.036830
0.051829
0.051708
0.052862
0.052187
0.039864
0.040544
0.038978
0.050127
0.053146
0.058426
0.077378
0.082531
0.075367
0.049418
0.021137
0.014248
0.012058
0.008161
0.011323
0.014250
0.030569
0.044214
0.098226
0.095980
0.141105
0.130634
0.103235
0.064882
0.034521
0.022255
0.065978
0.096868
0.041795
0.023733
0.000000
0.002066
0.000771
0.010223
0.002408
0.001346
0.002570
0.000874
0.002077
0.005325
0.009164
0.012304
0.037963
0.044468
0.037623
0.042253
0.039431
0.041222
0.038782
0.057412
0.078931
0.080810
0.076051
0.083867
0.095348
0.085172
0.000000
0.000581
0.003502
0.022261
0.058190
0.009784
0.004932
0.011053
0.029233
0.023796
0.023660
0.035311
0.048747
0.055227
0.058965
0.063631
0.062598
0.056760
0.058458
0.049299
0.046729
0.087568
0.065659
0.078921
0.067467
0.044182
0.028029
0.024622
0.016842
0.025743
0.023181
0.025549
0.049702
0.112407
0.084065
0.109881
0.141921
0.086495
0.085853
0.068881
0.055087
0.060344
0.044853
0.018047
0.025665
0.055969
0.029842
0.074728
0.111143
0.041608
0.068686
0.076962
0.062641
0.072322
0.048226
0.056975
0.015277
0.004385
0.008984
0.012791
0.003552
0.004646
0.001259
0.001152
0.003513
0.006143
0.085973
0.087154
0.091642
0.092387
0.096187
0.105219
0.101324
0.106694
0.086515
0.092330
0.092210
0.080398
0.082462
0.064281
0.051785
0.037544
0.046439
0.063716
0.040995
0.068424
0.036314
0.061426
0.047785
0.034958
0.054010
0.064978
0.034337
0.078302
0.071400
0.057679
0.056716
0.055772
0.065678
0.062209
0.072706
0.069339
0.049072
0.057470
0.079419
0.044592
0.074013
0.046126
0.067703
0.061754
0.046439
0.055932
0.077839
0.039273
0.068339
0.067640
0.077976
0.064177
0.080501
0.062746
0.092883
0.062630
0.083949
0.085902
0.085833
0.074299
0.078387
0.092302
0.074002
0.060767
0.075098
0.083404
0.059191
0.067999
0.063225
0.074882
0.059238
0.045621
0.046748
0.074128
0.104525
0.067725
0.065710
0.059644
0.057099
0.065835
0.032612
0.049922
0.054126
0.061926
0.054513
0.043919
0.072395
0.093145
0.064634
0.068142
0.079310
0.079454
0.061882
0.092273
0.055011
0.091411
0.068455
0.078392
0.068666
0.059856
0.115030
0.086676
0.082994
0.072758
0.051947
0.069491
0.053908
0.051533
0.090778
0.052418
0.067386
0.064199
0.062779
0.069438
0.055306
0.081060
0.082722
0.074589
0.085028
0.073895
0.051270
0.020919
0.004746
0.006239
0.003378
0.084149
0.005422
0.008688
0.039655
0.155425
0.212441
0.066967
0.054784
0.053836
0.082097
0.134712
0.143182
0.144174
0.175737
0.177271
0.063142
0.077165
0.115827
0.106968
0.055917
0.095091
0.046905
0.048702
0.054285
0.075063
0.072356
0.065515
0.067753
0.043207
0.041172
0.054707
0.058739
0.056306
0.049527
0.069144
0.046233
0.048008
0.040783
0.041074
0.046342
0.090551
0.050705
0.081491
0.083844
0.061676
0.073448
0.044647
0.077947
0.030155
0.116424
0.052463
0.069086
0.049210
0.070275
0.062868
0.060220
0.062505
0.063578
0.065777
0.057774
0.031713
0.023383
0.009203
0.013158
0.026583
0.059818
0.069139
0.037984
0.026815
0.031519
0.033903
0.064201
0.061196
0.034123
0.082614
0.036832
0.012634
0.013124
0.009382
0.010710
0.012533
0.015583
0.015841
0.019560
0.015041
0.011244
0.012306
0.036132
0.061637
0.062937
0.045908
0.040756
0.024280
0.003085
0.013840
0.017069
0.019051
0.048943
0.050123
0.054706
0.047312
0.047568
0.064875
0.050457
0.033245
0.034494
0.028914
0.035275
0.033645
0.038676
0.053380
0.067738
0.051236
0.071373
0.127688
0.071660
0.093027
0.104341
0.115001
0.088433
0.087289
0.062294
0.075421
0.073905
0.098371
0.085616
0.069409
0.045826
0.040487
0.038398
0.060735
0.079289
0.077880
0.074835
0.071087
0.061838
0.061030
0.036471
0.013920
0.021020
0.000200
0.000000
0.000283
0.001128
0.007834
0.012567
0.003878
0.000299
0.026058
0.019691
0.008752
0.008585
0.005906
0.008848
0.063024
0.027405
0.031355
0.003989
0.066694
0.030297
0.016130
0.013938
0.014846
0.011638
0.022048
0.010818
0.027160
0.052104
0.026423
0.036699
0.033983
0.043768
0.036706
0.040593
0.069554
0.092246
0.095518
0.062089
0.050856
0.039986
0.013398
0.013231
0.024546
0.023925
0.036396
0.031525
0.017080
0.020447
0.014124
0.018766
0.033954
0.082664
0.082396
0.096260
0.099135
0.092621
0.093491
0.092800
0.099147
0.086443
0.102027
0.102993
0.101040
0.106516
0.111960
0.097306
0.107233
0.097892
0.087805
0.083402
0.060369
0.045430
0.049627
0.035036
0.044796
0.063563
0.033742
0.027512
0.055354
0.035272
0.044666
0.049818
0.063886
0.061218
0.081081
0.067724
0.068074
0.056824
0.057823
0.058000
0.063471
0.096217
0.035542
0.047483
0.051908
0.053080
0.067126
0.072850
0.051896
0.053766
0.056621
0.043859
0.054914
0.067011
0.051717
0.061875
0.063230
0.075223
0.064142
0.084765
0.079522
0.081482
0.072727
0.083661
0.092936
0.090390
0.064282
0.086081
0.081588
0.072049
0.062085
0.070634
0.072440
0.072611
0.073655
0.077216
0.064111
0.057571
0.062599
0.062199
0.047537
0.063959
0.087999
0.067432
0.073373
0.067952
0.052081
0.050979
0.036437
0.044350
0.051741
0.054711
0.069761
0.096838
0.080119
0.064695
0.074191
0.080122
0.072942
0.093399
0.049649
0.070999
0.082357
0.084268
0.061962
0.078093
0.084092
0.083363
0.068043
0.080907
0.061018
0.051455
0.061159
0.066119
0.081769
0.064312
0.068610
0.045022
0.075339
0.067221
0.072092
0.068195
0.073382
0.083673
0.086657
0.079461
0.067019
0.052726
0.006154
0.007355
0.008431
0.000000
0.045824
0.068598
0.001406
0.009449
0.018093
0.024325
0.009932
0.103933
0.107489
0.076222
0.100011
0.060995
0.099497
0.062319
0.062281
0.045973
0.077733
0.061368
0.057184
0.060901
0.061450
0.047913
0.050113
0.042291
0.049269
0.060028
0.089768
0.060193
0.067875
0.081417
0.082395
0.092056
0.121834
0.123433
0.092549
0.080076
0.078036
0.070446
0.062542
0.103843
0.064671
0.093538
0.061699
0.068202
0.053839
0.044158
0.053754
0.071882
0.071278
0.072629
0.069237
0.070555
0.058859
0.039791
0.041867
0.012456
0.017362
0.012693
0.013246
0.030134
0.006035
0.055569
0.044428
0.045139
0.077964
0.106253
0.101246
0.057137
0.045660
0.051570
0.039471
0.028997
0.033754
0.046148
0.063274
0.028474
0.022620
0.022336
0.021873
0.048339
0.072844
0.021515
0.018905
0.039657
0.062814
0.065607
0.072187
0.073489
0.054274
0.073036
0.071607
0.092631
0.101527
0.099869
0.109999
0.111569
0.104700
0.101613
0.096690
0.102775
0.034828
0.020720
0.018659
0.035576
0.048091
0.063371
0.034956
0.022620
0.022379
0.023846
0.021709
0.049800
0.068007
0.054703
0.023977
0.052032
0.038075
0.026464
0.020341
0.016567
0.014922
0.018478
0.023640
0.023203
0.028643
0.028404
0.034094
0.026530
0.034743
0.096823
0.098953
0.100734
0.097187
0.099582
0.102757
0.081914
0.079128
0.066313
0.063493
0.034305
0.047630
0.044198
0.028169
0.030964
0.023450
0.016759
0.040224
0.040264
0.040140
0.057231
0.074185
0.072619
0.083921
0.065997
0.060510
0.056848
0.058027
0.065663
0.049644
0.027530
0.024406
0.039963
0.051321
0.082957
0.058712
0.063857
0.053501
0.056654
0.058603
0.055306
0.042237
0.064314
0.087355
0.078959
0.053088
0.074301
0.086519
0.080615
0.076206
0.069681
0.083194
0.097118
0.098040
0.061595
0.071896
0.100403
0.063670
0.073539
0.058265
0.095301
0.064242
0.071417
0.082201
0.065358
0.063512
0.058428
0.065915
0.058276
0.058148
0.065832
0.058786
0.072229
0.062482
0.067915
0.053902
0.047644
0.039642
0.045581
0.046947
0.069529
0.060197
0.066332
0.046265
0.089980
0.090112
0.091980
0.068430
0.079728
0.075722
0.072904
0.071688
0.071574
0.059201
0.065393
0.103715
0.070233
0.096206
0.071303
0.058336
0.087741
0.064791
0.060208
0.061167
0.065977
0.063678
0.069856
0.073436
0.055503
0.069722
0.047060
0.071821
0.060624
0.080621
0.083667
0.097893
0.072868
0.084300
0.060834
0.049337
0.035022
0.005972
0.009282
0.074149
0.079551
0.057193
0.058125
0.072411
0.061441
0.066652
0.078011
0.064410
0.094776
0.084555
0.080987
0.106405
0.089656
0.089750
0.081795
0.081924
0.115140
0.092824
0.091249
0.084071
0.067540
0.062166
0.081147
0.082314
0.092652
0.063094
0.069911
0.051841
0.078810
0.053150
0.058818
0.060087
0.066889
0.076424
0.080744
0.075630
0.074272
0.070704
0.049622
0.034966
0.032530
0.012031
0.002102
0.010537
0.011502
0.007584
0.004722
0.013028
0.006000
0.009975
0.011176
0.003970
0.007002
0.009230
0.014269
0.009387
0.006906
0.003682
0.008196
0.007381
0.010919
0.025462
0.078314
0.140179
0.028283
0.011578
0.018065
0.018628
0.018657
0.039682
0.061891
0.070863
0.071374
0.062797
0.063647
0.053658
0.063392
0.073230
0.049414
0.104005
0.077030
0.028018
0.050923
0.060645
0.039461
0.062734
0.045268
0.036249
0.022793
0.075317
0.058228
0.079863
0.075845
0.067876
0.059649
0.039616
0.140046
0.136770
0.120315
0.085462
0.060570
0.065587
0.087978
0.092576
0.103403
0.153915
0.099397
0.118109
0.134680
0.090674
0.094904
0.050623
0.050272
0.070772
0.036371
0.028465
0.024303
0.016106
0.014511
0.015351
0.012350
0.075387
0.052056
0.095019
0.104956
0.107975
0.115065
0.119314
0.117228
0.109284
0.101834
0.102737
0.045499
0.038018
0.047230
0.054333
0.057572
0.040889
0.019739
0.018873
0.025785
0.031185
0.007653
0.045376
0.049453
0.050868
0.039346
0.013943
0.024474
0.028543
0.031436
0.024789
0.058760
0.075547
0.075714
0.077961
0.067549
0.127497
0.091279
0.078229
0.057521
0.117425
0.082986
0.098842
0.097884
0.085855
0.075037
0.072088
0.041580
0.020329
0.018899
0.011637
0.005151
0.035433
0.026681
0.046197
0.056138
0.075153
0.082208
0.067363
0.074289
0.051997
0.055122
0.047586
0.060738
0.035756
0.012746
0.048358
0.035284
0.049913
0.060795
0.072914
0.063966
0.057933
0.062997
0.046626
0.068432
0.048344
0.064609
0.099134
0.063218
0.054115
0.068167
0.096401
0.068019
0.078216
0.082812
0.076553
0.116411
0.078385
0.066971
0.076747
0.097082
0.064417
0.074936
0.084562
0.079550
0.066475
0.080432
0.077901
0.068312
0.059378
0.063202
0.056126
0.041063
0.053466
0.028168
0.056441
0.057875
0.065328
0.063017
0.064961
0.058594
0.038242
0.044925
0.017165
0.097058
0.087744
0.078216
0.071319
0.054968
0.038302
0.037136
0.007146
0.011122
0.005740
0.004125
0.029408
0.025892
0.046922
0.059080
0.076523
0.078205
0.070499
0.073727
0.039179
0.051084
0.032882
0.035604
0.031548
0.027615
0.031706
0.028815
0.048910
0.065762
0.066134
0.061785
0.069749
0.045920
0.064536
0.066204
0.060780
0.071573
0.082187
0.068036
0.054584
0.080765
0.090761
0.069571
0.087226
0.102317
0.087524
0.101990
0.085160
0.063948
0.085083
0.099097
0.067152
0.079509
0.080033
0.077249
0.083124
0.090820
0.061615
0.059658
0.050466
0.047165
0.006319
0.078383
0.026250
0.029619
0.041989
0.054850
0.065037
0.065177
0.057205
0.042148
0.045565
0.047416
0.081016
0.087527
0.132577
0.137658
0.142211
0.111005
0.095963
0.099831
0.085472
0.065837
0.086405
0.109940
0.116003
0.117943
0.130586
0.177726
0.109169
0.118249
0.099473
0.122882
0.092303
0.112800
0.086493
0.090950
0.065514
0.074517
0.088035
0.073885
0.085877
0.083573
0.091485
0.076353
0.080486
0.075731
0.064967
0.006481
0.017361
0.019138
0.015601
0.023518
0.002920
0.003724
0.007712
0.008461
0.018538
0.050693
0.052691
0.036404
0.048853
0.039519
0.038457
0.046750
0.078964
0.070782
0.067333
0.053919
0.032187
0.008925
0.022173
0.010725
0.049774
0.087944
0.094623
0.062878
0.042067
0.051614
0.050833
0.078947
0.120155
0.093683
0.049773
0.053619
0.067911
0.055416
0.065840
0.074751
0.059006
0.043328
0.031170
0.036707
0.035211
0.049240
0.062163
0.043164
0.021495
0.037014
0.007666
0.004752
0.015583
0.027358
0.041863
0.050452
0.063725
0.068210
0.074473
0.062710
0.052829
0.038561
0.030677
0.032399
0.043900
0.020051
0.023756
0.011112
0.022265
0.064687
0.057620
0.069655
0.070438
0.058060
0.044962
0.073637
0.066357
0.049167
0.075456
0.075600
0.061257
0.069507
0.073875
0.097301
0.071191
0.067540
0.096884
0.095619
0.086377
0.092269
0.080545
0.090552
0.091388
0.075989
0.076754
0.076218
0.099892
0.095137
0.073448
0.062012
0.054158
0.045494
0.037395
0.037387
0.014931
0.046643
0.022562
0.033877
0.050875
0.062956
0.073531
0.052936
0.046794
0.043735
0.053012
0.067086
0.046923
0.060852
0.090578
0.090760
0.099428
0.068637
0.087847
0.080149
0.056318
0.071207
0.073458
0.056286
0.069029
0.081320
0.091477
0.095618
0.068701
0.077765
0.062887
0.086150
0.054425
0.059223
0.059825
0.080229
0.056571
0.098334
0.054872
0.051264
0.068214
0.052728
0.069807
0.075158
0.089006
0.095535
0.083711
0.076792
0.060824
0.040071
0.027943
0.062095
0.082542
0.075722
0.067911
0.066926
0.090302
0.093365
0.090124
0.072017
0.056703
0.047749
0.065196
0.049795
0.058467
0.039162
0.027210
0.019917
0.014177
0.033465
0.018163
0.023273
0.030047
0.046247
0.034637
0.017528
0.007969
0.009464
0.034584
0.022610
0.023924
0.029370
0.015600
0.034907
0.043812
0.040109
0.072380
0.047256
0.067118
0.035913
0.046970
0.056009
0.062309
0.047991
0.053612
0.064635
0.057024
0.053593
0.040041
0.076566
0.080403
0.075868
0.070815
0.071497
0.087474
0.059621
0.078277
0.081541
0.070680
0.079589
0.079442
0.100709
0.077380
0.084374
0.074351
0.064108
0.062610
0.069190
0.068766
0.063107
0.086886
0.091866
0.082706
0.078320
0.071552
0.064957
0.082673
0.057057
0.053030
0.071559
0.062647
0.087050
0.059047
0.063803
0.057890
0.050080
0.070024
0.053958
0.070347
0.075700
0.071822
0.095924
0.073752
0.063530
0.047326
0.019722
0.080045
0.111232
0.140887
0.119214
0.096176
0.050452
0.136856
0.076767
0.088479
0.091147
0.102713
0.115066
0.105283
0.135074
0.109482
0.126911
0.103773
0.110799
0.116253
0.100799
0.111211
0.081416
0.083755
0.081569
0.072242
0.066431
0.067727
0.072508
0.068859
0.070733
0.071219
0.077356
0.080632
0.070427
0.080532
0.059170
0.047292
0.048166
0.023152
0.011689
0.014368
0.006262
0.010854
0.023386
0.022001
0.028026
0.041913
0.015909
0.013588
0.013655
0.023355
0.040130
0.043830
0.049659
0.030164
0.062114
0.071463
0.100016
0.082856
0.087145
0.088760
0.102622
0.118697
0.122009
0.122930
0.126569
0.118987
0.104654
0.077602
0.076785
0.053725
0.041821
0.071705
0.082322
0.078376
0.080775
0.121315
0.089089
0.104325
0.088035
0.077606
0.067430
0.093312
0.044046
0.064960
0.065123
0.062926
0.040201
0.059218
0.057362
0.049110
0.044096
0.081180
0.073295
0.058449
0.083294
0.040469
0.042809
0.046588
0.045880
0.030737
0.021267
0.011097
0.010072
0.018486
0.032795
0.035868
0.032201
0.004171
0.000000
0.011445
0.032203
0.030504
0.031038
0.022889
0.040517
0.029237
0.049601
0.082001
0.061561
0.094299
0.081437
0.079155
0.042203
0.070138
0.051448
0.060779
0.073449
0.063480
0.069882
0.085000
0.079052
0.085938
0.082048
0.073561
0.078665
0.051940
0.052437
0.053339
0.049170
0.004731
0.013844
0.010603
0.025515
0.013429
0.028827
0.037049
0.080575
0.111696
0.066342
0.081843
0.092333
0.083417
0.089588
0.087259
0.095626
0.067685
0.068079
0.085364
0.065860
0.059766
0.067546
0.060448
0.068572
0.073041
0.064602
0.098902
0.093735
0.084194
0.087010
0.095197
0.076481
0.098006
0.070153
0.119472
0.087526
0.097579
0.072130
0.085265
0.060115
0.077242
0.082074
0.064375
0.076818
0.082813
0.066294
0.065837
0.039941
0.058758
0.091941
0.127854
0.063141
0.055112
0.067274
0.072013
0.076209
0.087853
0.068353
0.051002
0.056651
0.058158
0.057234
0.072330
0.036224
0.043133
0.088142
0.069166
0.098329
0.096156
0.081349
0.067906
0.117031
0.087136
0.086688
0.096518
0.101308
0.085994
0.095364
0.058243
0.077828
0.086273
0.090510
0.094656
0.095311
0.101344
0.097063
0.078649
0.087964
0.065675
0.061378
0.074522
0.080008
0.075431
0.072361
0.091203
0.092854
0.066704
0.095848
0.096975
0.078763
0.077438
0.114544
0.070713
0.103186
0.091518
0.091074
0.101449
0.106831
0.073042
0.092560
0.073664
0.073173
0.079712
0.077392
0.080052
0.070318
0.059693
0.101162
0.053945
0.039724
0.073018
0.088092
0.107997
0.100286
0.087497
0.083710
0.077516
0.096724
0.097899
0.125489
0.118259
0.102649
0.076249
0.099436
0.090288
0.096437
0.080645
0.102465
0.100351
0.119292
0.130268
0.124876
0.118716
0.109047
0.114959
0.115788
0.109729
0.107339
0.105561
0.101861
0.086723
0.078567
0.084933
0.076759
0.100402
0.100721
0.081134
0.079987
0.047846
0.062696
0.057238
0.041703
0.033066
0.021065
0.014498
0.007890
0.015732
0.017870
0.031454
0.034548
0.025177
0.000000
0.000000
0.011038
0.026788
0.034596
0.042603
0.033030
0.045562
0.062710
0.055057
0.062859
0.090206
0.083677
0.093355
0.091396
0.085240
0.077510
0.078438
0.059506
0.067907
0.078097
0.083137
0.096561
0.083049
0.084332
0.065272
0.076892
0.064517
0.058770
0.081571
0.089623
0.104526
0.065884
0.071963
0.064834
0.100046
0.057239
0.065216
0.066263
0.072747
0.066496
0.062082
0.065073
0.063713
0.058941
0.057378
0.052308
0.060002
0.081431
0.107842
0.086317
0.088890
0.065964
0.046867
0.040422
0.035401
0.041764
0.043671
0.050759
0.049842
0.051460
0.048311
0.051291
0.054735
0.074934
0.090940
0.109099
0.127922
0.127599
0.118029
0.113612
0.104905
0.099837
0.032781
0.017854
0.097271
0.069621
0.080336
0.047285
0.057265
0.072426
0.081772
0.050635
0.051246
0.053887
0.054581
0.055703
0.054829
0.055147
0.051400
0.064301
0.077109
0.103527
0.091325
0.100395
0.095285
0.102260
0.062770
0.067428
0.053303
0.057952
0.048389
0.054961
0.055775
0.107367
0.120938
0.052755
0.068842
0.069375
0.071800
0.104321
0.095716
0.069780
0.078884
0.063371
0.068596
0.056542
0.072006
0.060609
0.044809
0.068928
0.090052
0.089946
0.113774
0.086800
0.082147
0.085369
0.074553
0.093738
0.051583
0.076977
0.058060
0.044089
0.028444
0.021867
0.029349
0.020986
0.023078
0.053165
0.062190
0.067898
0.073298
0.055799
0.075118
0.056065
0.059024
0.062424
0.080028
0.064208
0.085072
0.067856
0.088296
0.079465
0.071461
0.067492
0.119988
0.096479
0.089391
0.084105
0.078931
0.094095
0.114241
0.074205
0.075546
0.076169
0.100730
0.099357
0.099564
0.110543
0.109193
0.110267
0.096547
0.097368
0.073784
0.087287
0.053004
0.065162
0.043200
0.031432
0.032001
0.020710
0.009157
0.008922
0.015322
0.028033
0.032485
0.036776
0.021115
0.016552
0.002884
0.146142
0.040331
0.045271
0.020475
0.082685
0.032878
0.055272
0.086370
0.077839
0.096372
0.112544
0.103993
0.095483
0.085812
0.083868
0.091007
0.090928
0.112424
0.064775
0.063118
0.058347
0.054757
0.052154
0.050730
0.044255
0.079290
0.111069
0.060387
0.161569
0.077697
0.114214
0.115090
0.071251
0.059214
0.020669
0.046514
0.046828
0.053203
0.064030
0.081528
0.081273
0.107992
0.075920
0.083412
0.075747
0.070793
0.079478
0.069522
0.049329
0.042150
0.057484
0.027308
0.021968
0.026280
0.005702
0.032659
0.065287
0.065396
0.107498
0.095826
0.090264
0.072192
0.108288
0.129985
0.109352
0.116068
0.097023
0.096266
0.115842
0.105549
0.104470
0.101279
0.084770
0.091521
0.075088
0.104762
0.094665
0.088822
0.111600
0.103525
0.106850
0.123091
0.111994
0.112631
0.105932
0.108046
0.121517
0.121458
0.104686
0.119341
0.118081
0.110077
0.107146
0.053652
0.065434
0.067808
0.092821
0.091055
0.078926
0.095755
0.067667
0.064133
0.088269
0.062470
0.068711
0.074597
0.061276
0.060318
0.080450
0.099803
0.115206
0.066286
0.060067
0.059014
0.074838
0.087738
0.062480
0.060811
0.095099
0.076379
0.075850
0.066696
0.053920
0.059681
0.063191
0.052386
0.056336
0.071544
0.049119
0.070503
0.048631
0.067697
0.103862
0.102722
0.067378
0.066659
0.071206
0.103095
0.082971
0.050093
0.063225
0.069654
0.084704
0.078135
0.057777
0.040742
0.040859
0.023574
0.014098
0.015378
0.025757
0.025532
0.026129
0.032101
0.055811
0.058793
0.049730
0.043567
0.051234
0.054930
0.070164
0.091507
0.097744
0.083750
0.081948
0.074258
0.067366
0.064880
0.071277
0.074230
0.106797
0.099239
0.093957
0.096093
0.093055
0.101274
0.112353
0.094526
0.108470
0.064384
0.081398
0.080420
0.078393
0.071374
0.103213
0.066092
0.087998
0.093814
0.110067
0.087080
0.107811
0.084925
0.098653
0.091491
0.084045
0.091097
0.082709
0.078788
0.092122
0.061904
0.081428
0.065002
0.068504
0.063191
0.083260
0.071528
0.075182
0.078730
0.072209
0.067118
0.081988
0.063446
0.059629
0.065796
0.080268
0.085505
0.129424
0.071054
0.078919
0.060318
0.073995
0.091640
0.070048
0.085655
0.067419
0.082791
0.078833
0.077477
0.058479
0.054559
0.052172
0.051750
0.086879
0.094455
0.096825
0.118418
0.105011
0.104838
0.104795
0.094924
0.072503
0.066485
0.121259
0.061158
0.036862
0.050574
0.037345
0.034613
0.020907
0.010622
0.006176
0.010858
0.015234
0.031715
0.036317
0.042785
0.020872
0.047382
0.157405
0.084243
0.063217
0.056398
0.074596
0.036221
0.095714
0.003901
0.040602
0.043320
0.045779
0.064926
0.071392
0.081396
0.060787
0.058722
0.066652
0.053181
0.071675
0.066177
0.060039
0.073434
0.063253
0.069415
0.089898
0.069305
0.079805
0.114299
0.094257
0.095751
0.092539
0.080445
0.096065
0.118156
0.084031
0.088038
0.078071
0.116649
0.034484
0.022022
0.041388
0.057052
0.064099
0.075673
0.070991
0.061010
0.064687
0.073892
0.051117
0.068779
0.054525
0.057373
0.074389
0.051612
0.089819
0.053826
0.087834
0.096841
0.082051
0.101642
0.099968
0.090191
0.081881
0.099353
0.117090
0.078691
0.088868
0.084969
0.093794
0.112725
0.090484
0.113304
0.084557
0.095131
0.077302
0.057779
0.038111
0.026967
0.020772
0.018294
0.011178
0.028156
0.028355
0.012072
0.028733
0.052085
0.060198
0.053359
0.059002
0.070153
0.056309
0.055559
0.043420
0.049263
0.046379
0.096605
0.091051
0.086241
0.086775
0.090382
0.121910
0.110533
0.110548
0.093717
0.095901
0.109473
0.097775
0.114045
0.090657
0.087001
0.101545
0.087321
0.075563
0.093536
0.094393
0.087323
0.100114
0.120370
0.095265
0.103896
0.085007
0.142580
0.093077
0.111181
0.109633
0.122579
0.111868
0.095343
0.094364
0.105602
0.130526
0.058890
0.041517
0.097987
0.093080
0.080030
0.067226
0.084127
0.076566
0.089454
0.076512
0.094457
0.053704
0.069235
0.051595
0.067867
0.079319
0.068193
0.078630
0.054841
0.068043
0.081185
0.058393
0.068444
0.083929
0.067304
0.035360
0.032535
0.016440
0.059188
0.093700
0.086325
0.101012
0.101748
0.088387
0.131608
0.102296
0.108365
0.120562
0.104759
0.088215
0.109577
0.079480
0.071297
0.079208
0.055786
0.050377
0.041314
0.046635
0.032700
0.019816
0.016224
0.007509
0.010592
0.004053
0.015697
0.031994
0.039468
0.035902
0.033661
0.044349
0.078575
0.081973
0.062312
0.083897
0.090541
0.055954
0.094812
0.073297
0.095630
0.102949
0.105164
0.111004
0.099557
0.099088
0.104793
0.102400
0.089832
0.106191
0.118163
0.098187
0.123135
0.100109
0.101595
0.101949
0.103224
0.108127
0.107287
0.106702
0.078905
0.071721
0.095148
0.101468
0.057558
0.112429
0.099279
0.111317
0.081014
0.105232
0.111889
0.112884
0.100879
0.101010
0.086794
0.111257
0.076592
0.089566
0.089818
0.098273
0.081635
0.095366
0.067000
0.084418
0.073752
0.094695
0.072874
0.079160
0.064557
0.088707
0.065656
0.065558
0.062994
0.064331
0.073825
0.058359
0.078387
0.082823
0.113549
0.080994
0.071580
0.067669
0.057837
0.088659
0.073708
0.083185
0.060687
0.070457
0.085145
0.069884
0.085948
0.052071
0.048084
0.105099
0.091208
0.086618
0.077878
0.058856
0.038121
0.020333
0.026208
0.020435
0.007078
0.031920
0.011836
0.037465
0.010889
0.037579
0.041188
0.030330
0.048626
0.065891
0.064793
0.060659
0.050247
0.046842
0.048883
0.062536
0.089726
0.098146
0.074942
0.107857
0.093974
0.069052
0.093387
0.069655
0.075423
0.092677
0.104282
0.079740
0.089848
0.095510
0.091491
0.077145
0.089857
0.092484
0.093146
0.070942
0.099678
0.121995
0.095122
0.114019
0.105048
0.101747
0.115757
0.111033
0.103613
0.114886
0.101424
0.114565
0.108918
0.099904
0.090789
0.115851
0.057998
0.070705
0.075669
0.059811
0.055130
0.055519
0.061239
0.062941
0.073046
0.102890
0.101901
0.110079
0.110095
0.119971
0.081220
0.122334
0.091985
0.084414
0.111509
0.091348
0.122987
0.113487
0.143582
0.121556
0.095178
0.114268
0.098216
0.133165
0.067781
0.131801
0.100802
0.100807
0.104503
0.087566
0.101941
0.074410
0.124860
0.078378
0.104179
0.063674
0.072522
0.062128
0.067853
0.110163
0.065905
0.089161
0.065633
0.056267
0.062076
0.083669
0.103825
0.090987
0.078711
0.052671
0.114531
0.072916
0.079581
0.083008
0.081297
0.063759
0.089120
0.057741
0.081325
0.110115
0.106185
0.106126
0.112791
0.107203
0.099009
0.110377
0.126927
0.118448
0.091061
0.089709
0.093836
0.089078
0.057671
0.069591
0.061570
0.053394
0.046671
0.050655
0.022371
0.012758
0.004239
0.015843
0.018795
0.024714
0.037513
0.037754
0.035234
0.026132
0.036839
0.061547
0.048227
0.111761
0.058422
0.096761
0.074909
0.059525
0.074964
0.080664
0.105938
0.083218
0.095809
0.105273
0.117618
0.119773
0.115419
0.122378
0.109422
0.121677
0.113493
0.062204
0.060483
0.052793
0.055125
0.041344
0.070873
0.094093
0.089615
0.087895
0.103833
0.108514
0.073910
0.075841
0.079541
0.067744
0.073192
0.070787
0.075829
0.059271
0.053894
0.088468
0.043583
0.078413
0.080872
0.073067
0.082422
0.110944
0.095682
0.093274
0.101545
0.088126
0.094151
0.115015
0.108704
0.089449
0.094215
0.097126
0.090960
0.055798
0.108381
0.087176
0.083844
0.075346
0.086803
0.107966
0.075277
0.072064
0.088335
0.112720
0.106763
0.113681
0.105547
0.104114
0.114077
0.115233
0.080161
0.089304
0.088549
0.076835
0.096138
0.064959
0.075183
0.082729
0.082080
0.059597
0.072176
0.053490
0.090435
0.057316
0.073515
0.070643
0.065894
0.113499
0.109970
0.124838
0.118940
0.088404
0.006874
0.020963
0.021666
0.041135
0.052735
0.051621
0.084125
0.094282
0.064698
0.064191
0.079603
0.096088
0.112192
0.115270
0.110758
0.141712
0.136096
0.116285
0.123372
0.115306
0.125449
0.119766
0.071778
0.071423
0.050479
0.061007
0.089038
0.075959
0.098695
0.085155
0.089955
0.107320
0.079063
0.108750
0.101414
0.110060
0.121705
0.099894
0.113931
0.105914
0.091963
0.114905
0.094021
0.086007
0.077966
0.062217
0.047738
0.017027
0.018319
0.009419
0.016833
0.033765
0.027085
0.017995
0.057244
0.073368
0.071182
0.077132
0.102556
0.076143
0.078240
0.071070
0.052613
0.071327
0.077940
0.076093
0.072483
0.068611
0.086400
0.108428
0.088677
0.090440
0.103131
0.095400
0.081216
0.060103
0.061625
0.049802
0.053849
0.086761
0.101495
0.092174
0.110480
0.092484
0.107966
0.065924
0.080125
0.093303
0.074389
0.075295
0.077470
0.070977
0.067476
0.073304
0.076704
0.078233
0.078664
0.071433
0.076346
0.058159
0.068641
0.074953
0.083015
0.078574
0.072642
0.066789
0.071127
0.071867
0.088436
0.083564
0.091655
0.091094
0.084098
0.099730
0.069886
0.093198
0.096736
0.083705
0.088029
0.081296
0.087521
0.070240
0.080803
0.090133
0.069225
0.083185
0.067626
0.066439
0.128372
0.108594
0.117665
0.099743
0.121918
0.105000
0.107572
0.112119
0.122779
0.133904
0.105222
0.119142
0.094680
0.108856
0.057767
0.074056
0.081511
0.055229
0.064694
0.061146
0.069932
0.082197
0.128172
0.089818
0.110622
0.102314
0.104872
0.104985
0.110341
0.112662
0.111343
0.107194
0.118416
0.118421
0.125330
0.106430
0.095074
0.080885
0.050475
0.083231
0.083036
0.074405
0.078732
0.099188
0.072659
0.093614
0.095302
0.086107
0.097888
0.127241
0.104220
0.115405
0.089466
0.115346
0.103513
0.112439
0.110236
0.091478
0.087863
0.079892
0.068104
0.042838
0.023046
0.012969
0.017260
0.020212
0.048407
0.033032
0.018372
0.028359
0.024331
0.027478
0.028189
0.040681
0.062812
0.066439
0.061801
0.064527
0.094894
0.099973
0.073338
0.121062
0.077861
0.104787
0.121653
0.145260
0.094567
0.069525
0.068306
0.054629
0.100878
0.091943
0.102378
0.105876
0.108219
0.124994
0.131654
0.141527
0.139190
0.150353
0.128485
0.126371
0.113793
0.052333
0.086999
0.072514
0.079933
0.054859
0.042532
0.042506
0.025984
0.021747
0.010151
0.017704
0.009590
0.014590
0.018483
0.040779
0.038168
0.027799
0.013581
0.099420
0.078053
0.070321
0.072835
0.092801
0.083130
0.095072
0.117777
0.065306
0.087759
0.136819
0.082530
0.122440
0.118670
0.111408
0.137971
0.100272
0.124825
0.100194
0.142119
0.125014
0.120960
0.096713
0.106673
0.078361
0.109007
0.087169
0.087460
0.103423
0.082272
0.069909
0.088587
0.084936
0.083429
0.103738
0.080794
0.094726
0.086064
0.089601
0.078340
0.086973
0.059696
0.069468
0.074863
0.072825
0.075393
0.073721
0.095652
0.062106
0.075018
0.079003
0.066416
0.101968
0.081182
0.098193
0.095819
0.103088
0.093386
0.133832
0.108205
0.095316
0.102134
0.129244
0.119204
0.110384
0.092441
0.097859
0.088673
0.082567
0.066303
0.049449
0.029123
0.009841
0.013191
0.015410
0.038462
0.035941
0.010439
0.037191
0.029023
0.027621
0.022856
0.020094
0.032351
0.044888
0.064370
0.070588
0.069861
0.074687
0.093324
0.140704
0.078730
0.094996
0.115984
0.093862
0.139801
0.115897
0.119448
0.104445
0.125759
0.099545
0.100894
0.131814
0.130757
0.096461
0.140269
0.111520
0.090614
0.107039
0.066203
0.059306
0.084067
0.077532
0.046024
0.067768
0.074301
0.091901
0.090247
0.057867
0.074275
0.104807
0.125594
0.142248
0.138516
0.118082
0.131823
0.150426
0.119518
0.133561
0.055607
0.107286
0.079287
0.093306
0.103113
0.096354
0.098700
0.105087
0.105208
0.142784
0.115522
0.137038
0.128945
0.124922
0.111234
0.100286
0.098809
0.090231
0.079203
0.067340
0.046775
0.025509
0.010070
0.015556
0.032926
0.018433
0.030996
0.004695
0.029244
0.040285
0.022242
0.027487
0.012289
0.013199
0.045669
0.064384
0.074823
0.081484
0.084909
0.082729
0.099238
0.140431
0.107180
0.095564
0.171898
0.096408
0.115685
0.101653
0.091079
0.093271
0.093620
0.089236
0.091865
0.073529
0.080151
0.083656
0.027303
0.019572
0.031194
0.043068
0.031257
0.044076
0.037048
0.031439
0.025850
0.089292
0.072965
0.062613
0.091092
0.076414
0.085459
0.100269
0.078576
0.075870
0.085684
0.089018
0.092196
0.122637
0.097371
0.116964
0.096344
0.125200
0.111208
0.136688
0.130652
0.105465
0.116954
0.105290
0.137338
0.127615
0.144146
0.147091
0.098923
0.120758
0.112275
0.128691
0.115057
0.126634
0.153347
0.132759
0.129357
0.078237
0.123437
0.104196
0.097402
0.135635
0.118275
0.105701
0.081066
0.072449
0.079027
0.067988
0.062475
0.095807
0.064403
0.068906
0.085161
0.100041
0.087662
0.056514
0.096613
0.090059
0.110467
0.008370
0.028813
0.026774
0.036625
0.026634
0.010230
0.011740
0.023957
0.033915
0.046698
0.054440
0.081611
0.084466
0.109217
0.112149
0.096211
0.090072
0.082249
0.101271
0.092089
0.094071
0.138500
0.092894
0.115190
0.114524
0.137839
0.130611
0.130018
0.110401
0.130097
0.099979
0.096539
0.088863
0.077812
0.064232
0.042816
0.023981
0.012608
0.012909
0.040543
0.016987
0.053819
0.025352
0.078799
0.088770
0.131260
0.122687
0.097073
0.166260
0.110646
0.154458
0.114011
0.111241
0.116024
0.123776
0.127658
0.113293
0.101922
0.083163
0.071334
0.064150
0.052593
0.028585
0.027721
0.120520
0.111111
0.103930
0.107370
0.098578
0.087988
0.087207
0.076849
0.103148
0.065825
0.090150
0.064559
0.094330
0.084070
0.100367
0.098826
0.099216
0.118954
0.091387
0.102242
0.128118
0.083448
0.097190
0.115269
0.097851
0.150202
0.112835
0.100499
0.150186
0.154804
0.155159
0.130267
0.143755
0.137719
0.112024
0.137738
0.167340
0.131610
0.112187
0.131700
0.108241
0.117183
0.101830
0.110862
0.113979
0.116821
0.116887
0.108656
0.168481
0.104885
0.109371
0.119083
0.093537
0.100203
0.084457
0.085402
0.086543
0.098217
0.084016
0.116503
0.092159
0.099079
0.120118
0.136772
0.137488
0.155992
0.116947
0.134607
0.129726
0.106425
0.106993
0.095803
0.089741
0.074846
0.054103
0.040236
0.021398
0.013610
0.014179
0.028235
0.021894
0.081225
0.035867
0.058603
0.014494
0.009328
0.014814
0.011063
0.040422
0.059520
0.082808
0.089487
0.097264
0.104690
0.110191
0.139113
0.118088
0.110741
0.138729
0.010700
0.018917
0.022006
0.034504
0.045352
0.061301
0.080357
0.099375
0.109519
0.125642
0.113555
0.017480
0.017011
0.026853
0.043943
0.050275
0.077285
0.081122
0.098930
0.107391
0.126565
0.134553
0.124074
0.123474
0.127880
0.116894
0.109226
0.109012
0.097015
0.084746
0.080814
0.090035
0.093201
0.100442
0.076444
0.091243
0.146783
0.187843
0.151224
0.134447
0.149473
0.149684
0.153496
0.097659
0.124092
0.102402
0.108113
0.092997
0.092140
0.107715
0.090565
0.021305
0.036709
0.124555
0.113093
0.108371
0.107309
0.100086
0.091807
0.045824
0.105081
0.067149
0.077634
0.089089
0.098104
0.111529
0.122885
0.122752
0.148477
0.112396
0.150705
0.108468
0.162946
0.133102
0.139648
0.139587
0.136222
0.175680
0.120313
0.134167
0.096171
0.139259
0.149331
0.112318
0.120138
0.129331
0.133020
0.130309
0.109356
0.099502
0.082602
0.107564
0.109033
0.124592
0.121756
0.112061
0.106730
0.120650
0.132349
0.123614
0.139442
0.127298
0.002180
0.005512
0.002380
0.002099
0.000713
0.001837
0.095513
0.300836
0.052251
0.075853
0.026151
0.083595
0.039706
0.021834
0.026077
0.066055
0.049242
0.057540
0.019094
0.026490
0.062464
0.096308
0.059209
0.033318
0.050290
0.040427
0.086798
0.087398
0.033632
0.020480
0.014892
0.074641
0.070343
0.111846
0.062420
0.066647
0.121363
0.117110
0.098070
0.118035
0.123165
0.124254
0.115766
0.110828
0.088453
0.099990
0.077608
0.115071
0.048787
0.076904
0.086074
0.079112
0.057934
0.078583
0.023235
0.019733
0.028155
0.108543
0.096228
0.074623
0.067881
0.069270
0.093486
0.048801
0.070260
0.030587
0.025531
0.033539
0.076418
0.088032
0.115726
0.120300
0.135777
0.144179
0.127052
0.100160
0.111568
0.100084
0.119977
0.147595
0.134297
0.127670
0.123054
0.131960
0.098520
0.078543
0.089215
0.038773
0.056499
0.045913
0.049272
0.049278
0.071246
0.028393
0.032324
0.043595
0.044369
0.055620
0.081500
0.045410
0.060060
0.001265
0.014710
0.007456
0.000000
0.000000
0.002635
0.002615
0.001400
0.004687
0.005071
0.003884
0.003919
0.000384
0.000264
0.001703
0.023917
0.012734
0.010554
0.002503
0.000668
0.000000
0.002398
0.000356
0.000198
0.004091
0.006765
0.004243
0.004195
0.001206
0.002163
0.001950
0.000934
0.002269
0.000911
0.000927
0.002270
0.000479
0.002021
0.003042
0.011293
0.003559
0.005489
0.004313
0.003470
0.000383
0.000105
0.000671
0.001356
0.000611
0.000361
0.000284
0.000341
0.000796
0.001671
0.003830
0.004731
0.006429
0.005079
0.006927
0.004278
0.002156
0.046123
0.044738
0.047418
0.052204
0.050479
0.053131
0.052343
0.046465
0.034958
0.018179
0.017272
0.016135
0.008942
0.008737
0.008080
0.006542
0.007583
0.006667
0.004757
0.010673
0.019109
0.031427
0.008778
0.016159
0.030301
0.049943
0.074852
0.059334
0.073859
0.081172
0.087746
0.098318
0.100224
0.100672
0.094541
0.084413
0.062780
0.049546
0.073495
0.053185
0.065854
0.021425
0.032817
0.012750
0.021911
0.006832
0.020735
0.010533
0.021988
0.012141
0.001477
0.017378
0.005303
0.013552
0.005384
0.010387
0.012563
0.014256
0.019703
0.018184
0.023330
0.009698
0.033486
0.008630
0.048460
0.036441
0.036671
0.055128
0.057455
0.069760
0.060846
0.099360
0.067589
0.093715
0.096200
0.054017
0.092997
0.070527
0.059087
0.075573
0.052492
0.066846
0.039349
0.059344
0.030946
0.032075
0.031842
0.016469
0.034573
0.022861
0.009274
0.014562
0.015270
0.015564
0.028576
0.027432
0.016604
0.021901
0.037403
0.019132
0.044059
0.033411
0.023938
0.041252
0.046687
0.000000
0.000486
0.003939
0.001210
0.000000
0.000000
0.003930
0.000000
0.000000
0.002235
0.000984
0.000896
0.000411
0.009032
0.000372
0.000566
0.001708
0.001183
0.000508
0.011947
0.010462
0.004688
0.003178
0.003951
0.001050
0.000259
0.001661
0.001643
0.017350
0.007291
0.004068
0.002551
0.001300
0.001204
0.011489
0.004468
0.023522
0.022989
0.080913
0.023370
0.002074
0.006508
0.010730
0.010174
0.012603
0.002467
0.010834
0.000000
0.023401
0.027145
0.027207
0.033303
0.029958
0.002187
0.001111
0.001003
0.000317
0.009903
0.017301
0.009389
0.005641
0.007920
0.007858
0.008622
0.006335
0.008662
0.003576
0.002010
0.005744
0.003654
0.005263
0.009853
0.014390
0.018364
0.024147
0.011109
0.008245
0.002263
0.002722
0.003022
0.001849
0.001640
0.000977
0.000626
0.000798
0.001198
0.003759
0.003055
0.004532
0.002264
0.003944
0.006477
0.008932
0.007056
0.002334
0.000757
0.001696
0.000000
0.001579
0.001371
0.000000
0.031902
0.038861
0.034098
0.036901
0.027866
0.033793
0.026733
0.001944
0.008850
0.026360
0.014507
0.028904
0.020629
0.014091
0.017832
0.010588
0.014591
0.018525
0.037478
0.021149
0.025159
0.017493
0.019921
0.032842
0.044233
0.047039
0.037970
0.062511
0.065877
0.088339
0.071064
0.097871
0.093049
0.069072
0.066087
0.089442
0.054013
0.065134
0.052691
0.065573
0.051714
0.046750
0.036976
0.028736
0.026774
0.026193
0.025849
0.029318
0.013685
0.020394
0.021791
0.018141
0.021665
0.025436
0.027479
0.028466
0.025677
0.031087
0.034954
0.039606
0.033702
0.043575
0.064484
0.068236
0.008915
0.000000
0.000000
0.000843
0.003288
0.001014
0.001453
0.001551
0.002043
0.003503
0.013053
0.010899
0.004505
0.001883
0.002502
0.002126
0.002483
0.111878
0.017477
0.001427
0.001694
0.004262
0.025392
0.018862
0.007472
0.006556
0.000470
0.001308
0.000000
0.012422
0.000000
0.000000
0.000000
0.000818
0.002403
0.000822
0.000067
0.000212
0.000607
0.005410
0.011313
0.015178
0.007184
0.001008
0.003300
0.005133
0.026561
0.037566
0.087478
0.060637
0.030624
0.045421
0.017034
0.010200
0.009543
0.003530
0.004060
0.000000
0.000000
0.003154
0.020063
0.002477
0.031000
0.013859
0.022351
0.032235
0.048420
0.054717
0.043099
0.042354
0.044062
0.050825
0.032584
0.031248
0.046279
0.048662
0.047157
0.050463
0.029984
0.038662
0.016298
0.019080
0.014523
0.009585
0.003705
0.007120
0.004214
0.006150
0.015780
0.015288
0.010210
0.025565
0.021597
0.026569
0.038093
0.048036
0.041792
0.030338
0.025466
0.007738
0.007364
0.003777
0.050189
0.023120
0.007029
0.010533
0.019171
0.021482
0.014266
0.007605
0.012690
0.034634
0.007747
0.025212
0.014047
0.018726
0.015847
0.016950
0.015250
0.009081
0.006293
0.003401
0.002672
0.002927
0.001403
0.001676
0.001718
0.002738
0.005683
0.002356
0.001984
0.002032
0.005298
0.011817
0.008421
0.011070
0.004769
0.002238
0.001600
0.005595
0.000000
0.027309
0.028643
0.037954
0.046407
0.052016
0.049913
0.043199
0.036378
0.021828
0.017146
0.023874
0.017129
0.007350
0.005291
0.000958
0.014015
0.004505
0.026718
0.019325
0.035346
0.029070
0.053482
0.013036
0.030642
0.019398
0.022754
0.008265
0.008525
0.012987
0.015737
0.038202
0.055366
0.036572
0.026065
0.032184
0.002494
0.005928
0.022299
0.017591
0.026476
0.034112
0.039264
0.011636
0.021428
0.032470
0.040249
0.024677
0.025668
0.019198
0.030144
0.031034
0.045779
0.042838
0.042656
0.055540
0.054495
0.077140
0.063751
0.072032
0.063956
0.081996
0.078557
0.082263
0.089241
0.078286
0.059389
0.088437
0.066437
0.058743
0.057301
0.058714
0.053581
0.049526
0.049610
0.034410
0.027086
0.022950
0.027131
0.024525
0.037754
0.020716
0.017955
0.028385
0.028739
0.018890
0.026570
0.027329
0.034660
0.035859
0.041700
0.045395
0.000000
0.002413
0.000928
0.000954
0.001876
0.003100
0.000411
0.006020
0.077139
0.017271
0.019360
0.005095
0.005013
0.009510
0.023045
0.039170
0.037099
0.036852
0.028681
0.024393
0.014433
0.006639
0.004402
0.006719
0.000000
0.007151
0.000000
0.010283
0.010922
0.004365
0.018989
0.012924
0.021536
0.024242
0.026816
0.027782
0.038200
0.033214
0.033857
0.050527
0.052292
0.060015
0.033835
0.102786
0.009397
0.007904
0.045769
0.048576
0.033322
0.051051
0.031337
0.073519
0.064082
0.053333
0.024361
0.045274
0.027591
0.015614
0.027096
0.046245
0.051658
0.142994
0.163851
0.051330
0.050078
0.061902
0.059495
0.055333
0.079324
0.065308
0.061177
0.049987
0.047693
0.036258
0.084621
0.073420
0.031494
0.029545
0.030985
0.022895
0.017938
0.016301
0.013138
0.013132
0.005361
0.005169
0.007426
0.002237
0.001813
0.002485
0.003440
0.004138
0.001187
0.002122
0.007195
0.002205
0.006762
0.018104
0.014080
0.011567
0.013786
0.005742
0.006333
0.006560
0.006094
0.086386
0.022052
0.061382
0.042439
0.013762
0.058663
0.038902
0.000757
0.030349
0.010949
0.023627
0.033662
0.033515
0.038552
0.039463
0.025979
0.019079
0.025663
0.029389
0.032227
0.039595
0.045589
0.051659
0.047864
0.061811
0.063299
0.053494
0.068236
0.076814
0.064479
0.092392
0.060933
0.086732
0.082886
0.085574
0.079758
0.066949
0.077230
0.078512
0.056781
0.058481
0.061019
0.055962
0.054075
0.050327
0.049999
0.042256
0.029079
0.027260
0.044756
0.025143
0.030346
0.022259
0.021371
0.037615
0.031510
0.023565
0.027646
0.031114
0.044713
0.049576
0.017381
0.019510
0.028023
0.042551
0.066791
0.060572
0.050811
0.047514
0.039902
0.045983
0.033658
0.033238
0.049246
0.024647
0.012575
0.012340
0.009315
0.017485
0.017796
0.017076
0.022087
0.026617
0.026583
0.015614
0.047859
0.044294
0.024915
0.021053
0.012155
0.012324
0.009954
0.003330
0.004382
0.009093
0.005114
0.028409
0.034852
0.045791
0.036130
0.021327
0.018331
0.017473
0.021106
0.039929
0.044982
0.045329
0.035386
0.045102
0.036340
0.027925
0.031949
0.018460
0.015858
0.010970
0.009706
0.006779
0.011551
0.000000
0.000000
0.000000
0.005746
0.005401
0.009453
0.004385
0.003994
0.005966
0.006718
0.020204
0.034208
0.044112
0.036502
0.030667
0.032840
0.011815
0.011246
0.036961
0.007746
0.009676
0.008407
0.020759
0.023775
0.039106
0.039686
0.036559
0.041064
0.037063
0.038173
0.036955
0.021124
0.019095
0.024879
0.026047
0.035867
0.040333
0.046871
0.047067
0.052558
0.067256
0.066555
0.066431
0.058818
0.076728
0.084930
0.089819
0.061139
0.000008
0.000410
0.005836
0.009596
0.000000
0.000000
0.002841
0.004029
0.011895
0.028882
0.031752
0.025011
0.021097
0.028514
0.017878
0.012554
0.009130
0.009598
0.006184
0.043167
0.040382
0.029623
0.020800
0.026602
0.032235
0.023493
0.035714
0.020431
0.011573
0.008109
0.016886
0.024058
0.020903
0.022720
0.027695
0.018004
0.026185
0.050738
0.054458
0.074364
0.063866
0.028964
0.036563
0.047974
0.075617
0.056847
0.067429
0.072028
0.107792
0.120663
0.119960
0.091765
0.046593
0.072406
0.057252
0.064384
0.074268
0.073953
0.055123
0.071614
0.046743
0.053522
0.065215
0.065541
0.042351
0.026759
0.030124
0.029287
0.017132
0.014831
0.010197
0.006571
0.009118
0.071023
0.078738
0.082032
0.071977
0.074729
0.077324
0.077687
0.061331
0.065496
0.058336
0.058063
0.044103
0.049889
0.049295
0.041823
0.027408
0.036189
0.030098
0.028530
0.028924
0.019851
0.026455
0.047948
0.028264
0.024077
0.035084
0.002362
0.006405
0.007039
0.014421
0.054641
0.032742
0.011195
0.001806
0.015033
0.020392
0.032882
0.031650
0.028892
0.033581
0.029347
0.024679
0.012723
0.015877
0.008509
0.010529
0.020541
0.023477
0.027050
0.032745
0.038659
0.052880
0.025907
0.038526
0.020906
0.019318
0.033204
0.034110
0.021703
0.021975
0.022971
0.016634
0.026307
0.040410
0.063338
0.077157
0.096019
0.091743
0.010027
0.013728
0.017546
0.036175
0.040215
0.044438
0.044032
0.034026
0.022189
0.025143
0.037691
0.048784
0.034223
0.030395
0.038175
0.031158
0.003060
0.017925
0.018097
0.018176
0.002261
0.023247
0.014000
0.008737
0.010845
0.018836
0.008113
0.026311
0.019152
0.021940
0.014921
0.040100
0.039078
0.041166
0.037703
0.028709
0.030602
0.020119
0.019790
0.022384
0.029180
0.035212
0.041576
0.050098
0.049277
0.045813
0.066356
0.047838
0.079405
0.061901
0.069081
0.063746
0.073845
0.071717
0.047156
0.043537
0.033779
0.030344
0.032545
0.024167
0.038210
0.018502
0.051538
0.062093
0.030901
0.021944
0.025129
0.022035
0.014262
0.012663
0.011675
0.020421
0.008762
0.077130
0.088354
0.073770
0.071599
0.079324
0.068216
0.076478
0.060132
0.062973
0.054460
0.061038
0.061480
0.047393
0.054984
0.050791
0.056935
0.044912
0.046848
0.036923
0.042474
0.023601
0.021648
0.024323
0.015231
0.024032
0.051156
0.044638
0.007704
0.010718
0.013873
0.023196
0.051044
0.110389
0.121184
0.057369
0.168460
0.079589
0.038474
0.045198
0.033907
0.041988
0.038030
0.044057
0.031916
0.021178
0.023093
0.015693
0.017224
0.029714
0.032415
0.041738
0.030555
0.032219
0.027757
0.026013
0.027593
0.013866
0.022940
0.029803
0.023502
0.020588
0.020977
0.018423
0.012965
0.006938
0.006059
0.009651
0.005983
0.003260
0.008344
0.009601
0.111048
0.071721
0.063038
0.078755
0.076727
0.064723
0.071818
0.075880
0.074737
0.063464
0.077077
0.064939
0.079024
0.050138
0.068459
0.057278
0.044914
0.036021
0.033825
0.022272
0.012144
0.017327
0.022359
0.047421
0.043604
0.044330
0.021037
0.031011
0.012350
0.024084
0.027411
0.040085
0.023285
0.016616
0.022838
0.082068
0.057729
0.062679
0.066608
0.072539
0.029793
0.033142
0.020094
0.023436
0.019849
0.032454
0.033909
0.040182
0.053524
0.057417
0.057667
0.060735
0.048584
0.068666
0.073777
0.084586
0.082774
0.070052
0.067945
0.061907
0.077189
0.082692
0.082963
0.070301
0.079652
0.071261
0.075785
0.066549
0.030308
0.031004
0.022562
0.023311
0.018709
0.029000
0.049272
0.055426
0.048353
0.040110
0.032081
0.037624
0.025353
0.019004
0.021196
0.023243
0.028179
0.024220
0.032606
0.052047
0.057717
0.049861
0.056817
0.053595
0.054553
0.059795
0.051926
0.049642
0.033597
0.029420
0.012824
0.022827
0.020537
0.018028
0.049442
0.033534
0.058583
0.069150
0.076662
0.092473
0.106000
0.090520
0.023774
0.023567
0.034311
0.040106
0.049384
0.050624
0.047823
0.044527
0.027471
0.026522
0.015296
0.013499
0.004976
0.005781
0.006126
0.062426
0.048941
0.043339
0.028982
0.024618
0.012253
0.022345
0.009656
0.018598
0.028010
0.026248
0.044569
0.060059
0.084146
0.068660
0.096556
0.088106
0.102230
0.074033
0.058318
0.050331
0.045050
0.044595
0.044180
0.051577
0.041496
0.042783
0.034355
0.025583
0.025882
0.057315
0.061799
0.061509
0.065279
0.075129
0.094872
0.125269
0.085989
0.119541
0.088743
0.118376
0.088860
0.073796
0.072839
0.047177
0.066893
0.079755
0.078717
0.059717
0.084712
0.023272
0.024919
0.077531
0.079403
0.095482
0.079512
0.084428
0.053899
0.083547
0.083363
0.078591
0.078019
0.085865
0.082589
0.078182
0.069854
0.091926
0.067769
0.071964
0.067752
0.057342
0.059665
0.081172
0.059184
0.099032
0.091400
0.067437
0.083673
0.055078
0.061905
0.080724
0.064184
0.060147
0.082521
0.075117
0.075846
0.069336
0.088180
0.073067
0.104678
0.061713
0.069205
0.064690
0.061401
0.062378
0.054568
0.069698
0.057505
0.064361
0.045781
0.065911
0.054398
0.055535
0.039165
0.033514
0.018369
0.013808
0.017461
0.018243
0.103622
0.113063
0.067175
0.075665
0.062423
0.068694
0.080395
0.073885
0.076999
0.068917
0.074044
0.067178
0.079539
0.095515
0.096118
0.086274
0.103210
0.064773
0.068860
0.079751
0.069833
0.077990
0.067981
0.069963
0.068472
0.070412
0.063423
0.085444
0.066772
0.055035
0.058160
0.059803
0.039262
0.058269
0.070345
0.078557
0.093541
0.095889
0.086495
0.058686
0.028559
0.045890
0.066219
0.077267
0.086932
0.064306
0.063510
0.068323
0.080388
0.065325
0.060004
0.054430
0.060299
0.053031
0.049007
0.048602
0.046357
0.054020
0.039807
0.047066
0.045193
0.041507
0.079397
0.040150
0.046770
0.056471
0.048820
0.061446
0.041922
0.034610
0.035834
0.036595
0.060009
0.050542
0.041569
0.036226
0.013618
0.015063
0.018818
0.104069
0.062621
0.085065
0.064287
0.089749
0.065998
0.067985
0.065523
0.061586
0.062377
0.064257
0.064404
0.052006
0.067901
0.023300
0.013551
0.015946
0.027257
0.025289
0.032172
0.028162
0.058590
0.065115
0.068267
0.080388
0.092737
0.096743
0.066306
0.047593
0.044009
0.051984
0.063696
0.057330
0.066597
0.075082
0.094752
0.053994
0.058664
0.075839
0.069817
0.071364
0.054356
0.067744
0.085310
0.066805
0.055550
0.056035
0.056083
0.055385
0.050902
0.048910
0.055598
0.037607
0.055803
0.049933
0.054663
0.050441
0.049410
0.050617
0.052783
0.064487
0.058845
0.067237
0.061740
0.060685
0.062397
0.058574
0.040157
0.038835
0.028517
0.017439
0.070499
0.046107
0.048876
0.058639
0.052009
0.058747
0.069666
0.056696
0.045393
0.040023
0.037813
0.029753
0.057159
0.030192
0.027904
0.014000
0.030243
0.029753
0.043916
0.017501
0.025649
0.045001
0.081248
0.062540
0.082563
0.087266
0.091744
0.071932
0.056721
0.051153
0.055208
0.063500
0.050895
0.057752
0.060206
0.066400
0.082567
0.077118
0.078739
0.103950
0.071447
0.075452
0.061855
0.071451
0.073598
0.079345
0.063713
0.072442
0.079489
0.061808
0.060025
0.061551
0.058171
0.063667
0.064926
0.077208
0.074086
0.064166
0.049909
0.054851
0.068555
0.064164
0.055067
0.052533
0.063631
0.065702
0.069945
0.060105
0.055544
0.064147
0.053211
0.060446
0.054341
0.056186
0.053354
0.055737
0.058860
0.063286
0.066922
0.053600
0.061566
0.069683
0.085923
0.080558
0.048193
0.069326
0.058776
0.068757
0.064485
0.053159
0.053487
0.065671
0.034083
0.038115
0.041807
0.040869
0.034009
0.052805
0.085422
0.084616
0.063858
0.064832
0.062568
0.062820
0.081948
0.091616
0.054658
0.075942
0.080126
0.074270
0.075089
0.052200
0.053981
0.067951
0.067589
0.071946
0.083905
0.068883
0.080807
0.063946
0.078543
0.075949
0.082546
0.072664
0.067960
0.064854
0.064788
0.054803
0.061890
0.065790
0.065869
0.059384
0.063983
0.077576
0.073252
0.046937
0.028474
0.086290
0.064037
0.079798
0.085490
0.081686
0.068277
0.057894
0.064795
0.057035
0.067294
0.058008
0.060336
0.053622
0.052151
0.047172
0.055550
0.055605
0.056428
0.064730
0.058823
0.053511
0.074949
0.067972
0.060653
0.089483
0.076256
0.068203
0.090910
0.091728
0.079288
0.089142
0.076757
0.082163
0.070242
0.081132
0.070350
0.063054
0.060730
0.056887
0.062363
0.068416
0.068018
0.063630
0.070435
0.072271
0.092353
0.079270
0.075120
0.081568
0.099629
0.088399
0.091997
0.066543
0.065833
0.065115
0.060393
0.064252
0.056766
0.050853
0.056787
0.055122
0.057249
0.053272
0.053729
0.056699
0.054719
0.068252
0.062695
0.053531
0.085956
0.056761
0.068896
0.067370
0.071200
0.059926
0.054579
0.054777
0.050034
0.071193
0.055703
0.068301
0.057920
0.078785
0.061651
0.101112
0.067177
0.078023
0.062099
0.074697
0.081400
0.071887
0.070491
0.073369
0.074913
0.088258
0.073086
0.092132
0.083271
0.083483
0.073057
0.073248
0.090775
0.063686
0.063241
0.064395
0.086602
0.057313
0.078824
0.079910
0.071681
0.085239
0.086061
0.079661
0.054113
0.072814
0.077821
0.067138
0.057622
0.073977
0.076224
0.074348
0.016490
0.023799
0.021987
0.024729
0.011099
0.037501
0.013075
0.040393
0.023875
0.015689
0.020995
0.092714
0.106189
0.114383
0.009602
0.014152
0.011000
0.015214
0.023474
0.011410
0.065003
0.065513
0.063603
0.066036
0.069463
0.059847
0.061889
0.063758
0.061618
0.052209
0.061218
0.058634
0.074303
0.072772
0.066995
0.073350
0.077646
0.064280
0.061017
0.073910
0.068129
0.077758
0.057407
0.073509
0.095641
0.056038
0.062701
0.055223
0.064925
0.036391
0.007932
0.037580
0.023036
0.040259
0.031435
0.019634
0.017517
0.015966
0.016223
0.011175
0.005370
0.004528
0.003383
0.002295
0.003085
0.003214
0.004646
0.000344
0.003871
0.005471
0.005607
0.001460
0.002056
0.008658
0.007287
0.005318
0.007038
0.010436
0.009291
0.007973
0.018869
0.005896
0.004590
0.000841
0.000000
0.002311
0.026823
0.041641
0.036500
0.049954
0.055509
0.046226
0.055571
0.040255
0.046651
0.015835
0.015758
0.019746
0.012798
0.011069
0.008336
0.011323
0.006011
0.015902
0.014750
0.005438
0.000000
0.001956
0.003607
0.000305
0.001155
0.007344
0.009634
0.006507
0.002993
0.000454
0.002428
0.003248
0.004633
0.000603
0.003978
0.001149
0.000246
0.002054
0.002166
0.000626
0.000521
0.000552
0.000000
0.000513
0.000000
0.000763
0.003480
0.001730
0.006945
0.008005
0.006207
0.013509
0.001357
0.001576
0.000544
0.000593
0.000343
0.000374
0.000513
0.002105
0.004796
0.003566
0.005452
0.004633
0.005222
0.004438
0.002175
0.002289
0.002439
0.005818
0.002434
0.038181
0.047042
0.016169
0.044983
0.017403
0.046984
0.015832
0.047578
0.043394
0.052660
0.066100
0.054418
0.069614
0.029107
0.083918
0.028016
0.056777
0.028081
0.058431
0.033938
0.042356
0.021625
0.051472
0.015515
0.059730
0.019395
0.061612
0.022090
0.055575
0.016922
0.061112
0.023946
0.053407
0.034891
0.060651
0.023082
0.083741
0.021663
0.071231
0.031479
0.067831
0.023984
0.064941
0.021569
0.061177
0.029857
0.058737
0.000973
0.000000
0.000624
0.000552
0.000267
0.000746
0.000000
0.000404
0.003609
0.005701
0.011897
0.018438
0.020355
0.045029
0.048493
0.021138
0.029634
0.021201
0.013491
0.013336
0.008477
0.008617
0.006947
0.011170
0.015807
0.007547
0.003728
0.003130
0.006424
0.003003
0.003051
0.006290
0.000743
0.004143
0.001597
0.002133
0.005242
0.012097
0.026609
0.037802
0.009887
0.003764
0.002538
0.000000
0.000000
0.012464
0.002895
0.013054
0.002674
0.000846
0.010122
0.007612
0.007901
0.007363
0.003534
0.015376
0.003676
0.001086
0.003941
0.003068
0.000554
0.001156
0.001154
0.001423
0.000000
0.001009
0.001111
0.005775
0.006586
0.005502
0.007689
0.014798
0.015732
0.004520
0.001660
0.001386
0.000928
0.000612
0.001450
0.004208
0.001599
0.001693
0.002730
0.007355
0.006911
0.009753
0.006392
0.003915
0.004291
0.001649
0.001670
0.004487
0.085898
0.014506
0.000000
0.000000
0.035251
0.040729
0.031048
0.045425
0.039776
0.047895
0.051591
0.042409
0.053909
0.050812
0.071365
0.052384
0.067585
0.056117
0.058954
0.050892
0.055925
0.043486
0.034133
0.042505
0.035879
0.041924
0.044283
0.041437
0.050084
0.047386
0.047642
0.049129
0.042979
0.040727
0.037528
0.056079
0.050624
0.044012
0.045404
0.061119
0.049064
0.068533
0.055410
0.046455
0.062297
0.065725
0.067925
0.049973
0.054319
0.039007
0.060000
0.045900
0.053608
0.067966
0.057157
0.061251
0.061014
0.049844
0.025209
0.019073
0.014674
0.009487
0.012742
0.018247
0.032409
0.039699
0.036729
0.041001
0.000844
0.002065
0.001251
0.001703
0.001478
0.001492
0.001741
0.006810
0.013420
0.016603
0.026763
0.038637
0.001946
0.002574
0.008770
0.014798
0.002932
0.007635
0.019194
0.032933
0.014358
0.018814
0.063710
0.045703
0.047163
0.089335
0.115907
0.018508
0.018115
0.000000
0.000000
0.000000
0.000000
0.017094
0.015397
0.020579
0.022082
0.029317
0.066397
0.069847
0.018204
0.002003
0.000459
0.016001
0.021882
0.018111
0.021409
0.017909
0.007102
0.004585
0.003936
0.000785
0.000960
0.001355
0.003841
0.008776
0.009087
0.013958
0.017748
0.011225
0.005597
0.002728
0.002211
0.001413
0.002321
0.002792
0.002086
0.004375
0.005078
0.015879
0.022512
0.037962
0.014803
0.012851
0.013277
0.012658
0.032323
0.019107
0.029409
0.029852
0.021746
0.036369
0.033671
0.040542
0.042253
0.038708
0.043243
0.087108
0.047381
0.050174
0.042854
0.030743
0.016000
0.010578
0.010279
0.016022
0.008262
0.012545
0.016407
0.013480
0.038553
0.058027
0.054153
0.054286
0.063871
0.063636
0.057936
0.083847
0.077771
0.065744
0.055142
0.058990
0.066415
0.036303
0.052311
0.048989
0.076476
0.074965
0.042437
0.040908
0.054352
0.059729
0.055565
0.062373
0.059928
0.066603
0.047035
0.072002
0.066689
0.084209
0.074289
0.051384
0.048111
0.045562
0.038034
0.046592
0.038942
0.046192
0.050106
0.046304
0.055406
0.051564
0.054984
0.048355
0.040653
0.052614
0.045758
0.042212
0.055713
0.055909
0.066682
0.067613
0.058889
0.058298
0.079509
0.055759
0.061166
0.062167
0.046048
0.053241
0.017959
0.021447
0.041631
0.029186
0.030221
0.032589
0.022581
0.045758
0.049404
0.050484
0.038678
0.053680
0.081454
0.093870
0.066147
0.017342
0.000000
0.000000
0.000000
0.000000
0.016359
0.025680
0.015850
0.014337
0.056420
0.031847
0.035804
0.071052
0.069388
0.056566
0.030843
0.077151
0.082630
0.014118
0.030992
0.029094
0.033538
0.026576
0.011389
0.004245
0.002412
0.004711
0.002301
0.001642
0.001436
0.005765
0.011467
0.012893
0.022877
0.010068
0.013749
0.008307
0.005689
0.008067
0.006128
0.006695
0.012162
0.033402
0.035142
0.101748
0.032117
0.030162
0.032106
0.023653
0.026973
0.028897
0.038713
0.040972
0.039996
0.045581
0.047054
0.047441
0.045683
0.048775
0.047406
0.049055
0.047573
0.047056
0.054971
0.066170
0.050978
0.058938
0.069645
0.065802
0.074848
0.062025
0.063667
0.070837
0.052520
0.066811
0.059069
0.065550
0.088883
0.043850
0.057988
0.063601
0.034994
0.032634
0.022607
0.017706
0.022081
0.017913
0.012278
0.058236
0.056671
0.053509
0.052114
0.060614
0.059809
0.062174
0.058885
0.052704
0.066331
0.072414
0.079557
0.061719
0.060305
0.067317
0.050276
0.037339
0.052119
0.038651
0.052678
0.051155
0.053706
0.050262
0.058143
0.056538
0.049626
0.046670
0.055074
0.042905
0.051403
0.062024
0.061624
0.060032
0.062315
0.066548
0.075525
0.092614
0.054816
0.061160
0.067566
0.056322
0.053048
0.024815
0.036016
0.028858
0.043226
0.040637
0.057767
0.063629
0.061464
0.048228
0.042441
0.059335
0.078743
0.080031
0.090530
0.027571
0.041594
0.023160
0.000000
0.000000
0.000000
0.000272
0.015444
0.025502
0.007115
0.046137
0.057914
0.051498
0.078581
0.067067
0.051079
0.009606
0.000000
0.000000
0.000000
0.040093
0.072302
0.041709
0.007497
0.050613
0.018429
0.052291
0.070216
0.059317
0.071462
0.069526
0.053614
0.045748
0.021789
0.042999
0.038260
0.052144
0.045301
0.045649
0.038372
0.030965
0.027650
0.011236
0.003963
0.004064
0.004351
0.003003
0.004024
0.011347
0.009597
0.018814
0.014054
0.012994
0.014548
0.006662
0.006626
0.013702
0.013823
0.018436
0.038082
0.035335
0.055510
0.075562
0.066268
0.060856
0.054348
0.043207
0.036446
0.033853
0.033027
0.035888
0.037292
0.043678
0.039652
0.064723
0.057968
0.056341
0.058884
0.057221
0.054173
0.057791
0.058675
0.076556
0.067708
0.071285
0.069486
0.068865
0.075202
0.076975
0.075323
0.068387
0.073651
0.075509
0.085448
0.061871
0.061773
0.055195
0.061151
0.083151
0.064573
0.070086
0.060354
0.046711
0.036032
0.040875
0.033436
0.030782
0.035923
0.057147
0.072166
0.073442
0.061184
0.072550
0.067922
0.073992
0.099626
0.078198
0.058009
0.065533
0.063266
0.057236
0.054871
0.039753
0.054186
0.041360
0.052756
0.043548
0.058317
0.066012
0.050360
0.050964
0.044219
0.048290
0.053686
0.051212
0.052582
0.067504
0.070146
0.067026
0.063821
0.102281
0.090431
0.071563
0.079913
0.065691
0.073063
0.060319
0.042387
0.046137
0.044887
0.011227
0.005853
0.005529
0.011949
0.014231
0.015750
0.016695
0.012348
0.011769
0.016237
0.016667
0.015429
0.015282
0.034269
0.035575
0.053903
0.060059
0.071153
0.074856
0.076082
0.077388
0.063591
0.059669
0.050682
0.036100
0.045508
0.036281
0.066544
0.074622
0.028651
0.012451
0.000000
0.000000
0.000000
0.018252
0.035765
0.040372
0.039043
0.035579
0.029476
0.044362
0.075092
0.057107
0.069339
0.066475
0.077865
0.060701
0.043515
0.060359
0.047028
0.045282
0.042665
0.042746
0.054555
0.044178
0.041998
0.048173
0.055320
0.057356
0.046646
0.070092
0.058817
0.068429
0.071616
0.060492
0.086029
0.057836
0.069250
0.078981
0.076340
0.071563
0.060984
0.079137
0.078753
0.073876
0.076773
0.071478
0.069359
0.073531
0.078494
0.089009
0.081861
0.062806
0.050039
0.044047
0.032991
0.026558
0.017244
0.069920
0.063273
0.070636
0.071021
0.091036
0.086644
0.104904
0.081851
0.079260
0.070117
0.064730
0.063173
0.059575
0.051707
0.042665
0.043713
0.059596
0.042897
0.016532
0.024935
0.041239
0.062654
0.047577
0.045617
0.042662
0.066232
0.053428
0.057129
0.085497
0.064844
0.083516
0.109804
0.086294
0.085119
0.078770
0.066414
0.074934
0.058844
0.056570
0.068561
0.070888
0.069285
0.092048
0.085623
0.079059
0.087875
0.093139
0.090047
0.086801
0.080012
0.082511
0.077307
0.082963
0.077128
0.082273
0.072369
0.067093
0.009814
0.019611
0.014390
0.016659
0.015465
0.025244
0.035176
0.040458
0.056463
0.055819
0.063113
0.073330
0.080230
0.083959
0.092118
0.089824
0.070181
0.070373
0.066692
0.051906
0.050646
0.049888
0.066654
0.038090
0.056715
0.056618
0.077543
0.051330
0.047593
0.028486
0.066641
0.089074
0.091687
0.069857
0.038423
0.049582
0.025107
0.009803
0.002820
0.000000
0.001561
0.008067
0.000000
0.038257
0.046949
0.044275
0.055063
0.053114
0.073295
0.051686
0.076564
0.066161
0.077619
0.077739
0.060197
0.069223
0.055063
0.050199
0.053807
0.042263
0.020303
0.064473
0.083334
0.080975
0.088506
0.076694
0.097582
0.094794
0.083711
0.097477
0.060071
0.074814
0.052874
0.064247
0.052764
0.049621
0.038992
0.056895
0.023388
0.014615
0.017859
0.023904
0.057058
0.037097
0.043049
0.052464
0.058055
0.065536
0.071601
0.069088
0.080112
0.073241
0.100677
0.099672
0.089501
0.082256
0.050078
0.060516
0.076372
0.080513
0.061048
0.077994
0.071239
0.019558
0.030971
0.032793
0.049142
0.057401
0.063419
0.065796
0.067252
0.071926
0.080830
0.093416
0.100263
0.111244
0.095252
0.090298
0.077958
0.073105
0.059781
0.066073
0.054776
0.064973
0.086296
0.063858
0.077438
0.079644
0.079665
0.078304
0.095860
0.083041
0.068978
0.040528
0.039609
0.038533
0.011882
0.005814
0.000000
0.000000
0.000000
0.057774
0.004350
0.001457
0.005975
0.000000
0.000000
0.000000
0.008717
0.003181
0.052311
0.034586
0.056572
0.078081
0.058621
0.076974
0.081155
0.099235
0.066561
0.072685
0.088355
0.084242
0.102208
0.080900
0.109920
0.111797
0.091327
0.080499
0.072099
0.061832
0.072577
0.051124
0.045978
0.037756
0.041559
0.026311
0.014470
0.011548
0.016638
0.037688
0.051322
0.045155
0.049863
0.055778
0.060544
0.063112
0.100001
0.079972
0.076336
0.086698
0.105882
0.084234
0.086810
0.076426
0.080476
0.091421
0.081350
0.069585
0.087904
0.073185
0.080570
0.079360
0.085289
0.082041
0.076100
0.075017
0.078927
0.073855
0.069127
0.057718
0.067531
0.078384
0.044688
0.077400
0.079964
0.081039
0.089314
0.098736
0.108605
0.115924
0.124131
0.104728
0.108042
0.092166
0.081011
0.072370
0.076648
0.073644
0.066391
0.055217
0.056676
0.077003
0.084149
0.043934
0.038488
0.088319
0.083910
0.097360
0.109744
0.095259
0.105301
0.070014
0.101358
0.073189
0.067322
0.047919
0.062451
0.034749
0.031692
0.008859
0.015065
0.015752
0.006311
0.019995
0.034707
0.052933
0.060246
0.045595
0.063100
0.070398
0.077642
0.074412
0.096605
0.093290
0.101051
0.092328
0.098372
0.078954
0.097834
0.118175
0.089323
0.100852
0.085260
0.099363
0.083296
0.082269
0.081580
0.090515
0.094641
0.104493
0.114215
0.102023
0.105068
0.089518
0.131749
0.093200
0.097494
0.093658
0.077610
0.078411
0.073787
0.073293
0.077170
0.072117
0.086615
0.103383
0.085997
0.083951
0.112661
0.086894
0.093607
0.075285
0.076327
0.085937
0.079112
0.081381
0.075167
0.046646
0.033777
0.022341
0.007020
0.016139
0.000000
0.000000
0.000000
0.000000
0.008118
0.009887
0.064849
0.021227
0.046837
0.064291
0.076044
0.083090
0.080873
0.090419
0.078131
0.081867
0.081686
0.080101
0.080688
0.094556
0.102963
0.084922
0.088097
0.092974
0.082708
0.063002
0.055190
0.049415
0.038704
0.036304
0.024362
0.009905
0.011207
0.025589
0.019356
0.048769
0.041207
0.048685
0.048558
0.069864
0.070689
0.070171
0.097032
0.064233
0.100661
0.102309
0.088126
0.071544
0.087293
0.084551
0.076255
0.095058
0.095472
0.106022
0.078467
0.094792
0.078507
0.070335
0.050298
0.045261
0.037969
0.050067
0.040780
0.008086
0.010110
0.017656
0.038599
0.027902
0.058386
0.077414
0.040310
0.067351
0.078481
0.071191
0.079622
0.107533
0.083415
0.098124
0.095365
0.087397
0.074689
0.076540
0.085969
0.088086
0.103183
0.081256
0.078719
0.065986
0.060878
0.036629
0.025330
0.016904
0.012936
0.003690
0.000962
0.077441
0.095207
0.096612
0.113030
0.124241
0.084996
0.120086
0.083759
0.087449
0.083460
0.080035
0.000000
0.002307
0.075445
0.032333
0.006881
0.020924
0.073834
0.029458
0.068140
0.084042
0.059474
0.095020
0.088259
0.026190
0.093286
0.085366
0.075265
0.093896
0.047940
0.020868
0.053222
0.039155
0.075061
0.080706
0.094362
0.082595
0.094841
0.095614
0.048828
0.052290
0.051150
0.075884
0.072954
0.099248
0.095875
0.063926
0.073436
0.075073
0.106899
0.097155
0.121462
0.105313
0.063533
0.087041
0.062323
0.090157
0.047789
0.039500
0.043720
0.032561
0.071587
0.066688
0.081510
0.093196
0.079741
0.086221
0.075281
0.000552
0.001844
0.003616
0.004316
0.066104
0.095156
0.065800
0.084217
0.051844
0.047142
0.067958
0.053316
0.042666
0.021804
0.071580
0.084135
0.074768
0.089986
0.035794
0.018295
0.085723
0.094305
0.103048
0.105546
0.074740
0.051482
0.045633
0.018182
0.013871
SCALARS S11_SP1(MPa) float 1
LOOKUP_TABLE default
0.005235
0.000702
-0.003791
-0.001225
0.014187
0.000165
-0.000031
-0.001981
-0.001972
-0.001220
-0.001204
-0.000406
-0.000419
0.000506
0.000884
0.000501
0.000264
-0.000096
-0.000337
-0.000175
-0.001630
-0.001038
-0.000435
-0.000307
-0.000655
-0.000401
-0.000616
-0.000741
-0.002069
-0.003471
-0.000482
-0.002628
-0.001538
0.000059
0.002280
0.001052
0.000561
-0.000663
0.000867
0.000895
0.002105
0.000692
0.001103
0.002266
0.001919
0.000536
-0.000548
0.001581
0.003071
0.003145
0.006751
0.006433
-0.000788
0.000837
0.001658
0.003492
0.005117
0.004366
0.002104
0.009672
0.000022
0.002487
0.001955
0.004864
0.008701
-0.003267
0.001964
0.010673
0.007123
0.001302
0.001249
-0.000110
0.000533
0.000607
0.000486
-0.000570
-0.000153
-0.000250
0.000247
-0.000346
0.004808
0.004971
0.002318
-0.001711
0.002253
-0.007807
-0.006259
-0.002347
-0.001082
-0.000796
-0.000122
-0.000733
-0.000016
-0.000368
0.000722
0.006245
0.000332
-0.000845
-0.000615
0.001522
0.001287
0.002233
0.000123
0.006640
0.009619
0.007774
0.007061
0.003777
0.008215
0.011937
0.014877
0.013101
0.015269
0.005610
0.005044
0.010454
0.015878
0.020352
0.035434
0.000715
0.000465
-0.000715
-0.000346
-0.000754
-0.000810
0.000766
-0.000851
0.000012
-0.000289
0.000060
0.000151
0.001414
0.000591
0.001838
0.001718
-0.000074
-0.000073
-0.000268
0.000349
-0.000821
-0.000059
-0.000673
-0.000337
-0.000584
-0.000141
-0.000436
-0.000664
-0.000059
-0.000569
-0.000135
-0.000108
0.000042
-0.000722
-0.001104
-0.006785
-0.010194
-0.004048
0.003884
-0.001700
0.000607
0.008608
-0.002233
-0.000919
-0.001186
-0.001800
-0.001526
-0.001488
-0.000448
-0.000490
-0.000294
0.000080
0.000977
-0.000011
-0.000234
-0.000856
-0.000444
-0.002170
-0.002735
-0.000902
-0.000868
-0.001466
-0.002510
-0.004894
-0.009741
-0.007844
-0.003048
-0.006902
-0.001526
0.000048
0.002496
0.001368
0.000378
0.000171
0.001272
0.001043
0.003672
0.003751
0.001259
0.000547
0.001118
0.000022
0.010987
0.003437
0.001325
0.005953
0.001356
0.000427
-0.000023
0.013545
0.020088
0.007069
0.004507
0.001304
0.000864
0.007842
0.004021
0.008858
-0.001005
0.001262
0.001107
0.010556
0.002287
0.001680
0.003235
0.000997
0.003278
0.002226
-0.000150
-0.000158
0.001413
0.001314
0.000517
-0.000191
0.000968
0.004194
-0.000069
-0.016173
-0.003328
-0.005709
0.001836
-0.000704
-0.001169
-0.000955
-0.000582
-0.000397
-0.000657
-0.001384
-0.002715
-0.000300
0.006302
0.002068
0.000990
-0.002263
-0.000331
-0.001111
0.000017
0.000639
0.027852
0.012998
0.009180
0.018882
0.017604
0.014877
0.028319
0.033160
0.018572
0.020489
0.020310
0.016880
0.018088
0.029109
0.055508
0.002549
0.001305
0.000214
-0.000688
-0.008682
-0.005015
-0.003239
-0.003833
-0.004571
-0.001017
0.000202
0.001230
0.003157
0.004307
0.039179
0.018452
0.001179
0.002450
0.002314
0.006324
0.001288
0.000656
0.001474
0.000259
-0.000305
-0.000024
-0.000471
-0.000489
-0.000416
-0.000456
-0.000201
0.000257
0.000347
0.000022
-0.002734
-0.011359
-0.011845
-0.021485
0.001663
-0.002778
0.001242
0.001116
0.000142
-0.000658
-0.001122
-0.001317
-0.000999
-0.000749
0.000190
0.000611
0.000582
0.001230
0.000515
0.000102
-0.000294
-0.000340
-0.000489
-0.001024
-0.000282
-0.000437
-0.001668
-0.001581
-0.004252
-0.009125
-0.006990
-0.003009
-0.008386
-0.002631
-0.000153
0.001397
0.006335
0.002709
0.008776
0.000708
0.000849
0.011564
0.002967
0.003215
0.004276
-0.000288
0.011666
0.015388
0.002662
0.002215
0.001175
0.001283
0.000810
0.004053
0.006701
0.002791
0.000826
0.016368
0.001135
-0.000190
0.001099
0.001264
0.004101
0.004595
0.009552
0.035568
0.022701
0.004566
0.007906
0.013473
0.006012
0.001483
0.003239
0.000443
0.000458
0.001080
0.000588
-0.002552
-0.018395
-0.007700
-0.001450
0.000156
-0.000683
-0.000538
0.000376
0.000040
0.001779
-0.000822
0.000081
0.000953
0.000974
0.000404
-0.002755
-0.002729
-0.000370
-0.000187
0.008025
0.018388
0.019600
0.016372
0.020601
0.033673
0.036235
0.034644
0.032469
0.021357
0.020146
0.023848
0.028143
0.032605
0.013229
0.067627
0.035450
0.039249
-0.003079
-0.000785
-0.007452
-0.004999
-0.001383
-0.001486
-0.000336
0.000706
0.001047
0.001837
0.012047
0.030052
0.110100
0.099794
0.076868
0.048843
0.008232
0.003269
0.001476
0.002701
0.002273
0.000262
0.000623
0.000277
0.000574
0.001465
0.010529
0.068395
0.032714
0.039538
0.024613
0.000399
-0.021115
-0.003311
-0.012113
-0.001626
0.000310
-0.000173
0.000407
0.000368
0.000321
0.000021
0.000804
0.001038
0.001133
-0.000032
0.000179
-0.000105
0.000164
0.000196
0.000197
0.000434
0.000154
-0.000535
-0.001075
0.000696
-0.000492
0.005279
0.005372
0.000983
0.001792
0.009679
0.000362
0.012729
-0.000058
-0.000363
0.007853
0.017105
0.005847
0.003602
0.005541
0.005506
0.008637
0.010164
0.011604
0.016207
0.018831
0.022461
0.026259
0.026150
0.028840
0.026410
0.021352
0.003942
0.011897
0.006740
0.015419
0.006510
0.013761
0.006365
0.011189
0.009859
0.006026
0.011021
0.003505
0.007389
0.007511
0.002233
0.006658
0.009496
0.003007
0.008002
0.010967
0.003821
0.010494
0.008829
0.009815
0.009744
0.007136
0.011921
0.009459
0.008586
0.008491
0.010774
0.007288
0.008184
0.011133
0.008772
0.012678
0.009319
0.006532
0.011944
0.010689
0.009808
0.012487
0.014028
0.015810
0.022810
0.019941
0.019866
0.023329
0.019706
0.024455
0.019370
0.030393
0.025171
0.028964
0.033711
0.037160
0.030840
0.030415
0.024992
0.026129
0.027548
0.020970
0.020887
0.018790
0.020961
0.009044
0.017577
0.013871
0.012275
0.016640
0.013882
0.014310
0.012392
0.011941
0.010115
0.006448
0.013708
0.011798
0.009696
0.016676
0.014211
0.006458
0.011739
0.013707
0.008817
0.016626
0.016150
0.006848
0.016302
0.014424
0.009454
0.018548
0.018538
0.011596
0.018461
0.021534
0.016645
0.017478
0.021796
0.011026
0.018618
0.016425
0.010023
0.012256
0.018148
0.010128
0.011931
0.013849
0.008519
0.009394
0.011534
0.005394
0.009326
0.008571
0.013432
0.011042
0.005522
0.009782
0.002502
0.000209
0.006389
0.007516
0.002765
0.001164
0.002649
0.003881
0.004404
0.001587
0.003729
0.001296
0.000271
0.000643
-0.000269
-0.001610
-0.004164
-0.001783
-0.001495
-0.002836
-0.008973
-0.010157
-0.001397
-0.003929
-0.008671
-0.001163
-0.002451
-0.001992
0.000685
0.000688
0.000674
0.000658
0.001647
0.001350
0.001277
0.000407
0.000272
0.000371
0.000374
-0.000050
-0.000459
0.012244
0.006665
0.007725
0.009843
0.011581
0.012689
0.016159
0.018228
0.021309
0.024843
0.028748
0.030747
0.029823
0.031904
0.030048
0.019065
0.000528
0.001481
0.000460
0.000058
-0.000027
0.001174
0.007749
0.021713
0.021560
0.016309
0.004020
-0.000101
0.000257
-0.017262
-0.024458
0.005044
0.033134
-0.000252
0.000326
0.013794
0.015104
0.021407
0.013567
0.015588
0.012735
0.014880
0.007357
0.008204
0.004910
0.005634
0.005588
0.002872
0.005784
0.007228
0.007273
0.007349
0.009714
0.008753
0.011770
0.010521
0.015915
0.011781
0.012580
0.012842
0.009398
0.016360
0.015804
0.016779
0.018169
0.018306
0.010192
0.019111
0.017256
0.019088
0.019425
0.013477
0.019040
0.014961
0.017343
0.016820
0.017547
0.025021
0.017179
0.021061
0.014646
0.028207
0.030489
0.037931
0.034737
0.031467
0.028940
0.033259
0.029594
0.020999
0.031028
0.031036
0.023007
0.027123
0.026645
0.024278
0.026597
0.019658
0.030528
0.024555
0.026570
0.015391
0.020396
0.016585
0.025933
0.020558
0.021224
0.021398
0.017968
0.015990
0.012817
0.009137
0.012081
0.014555
0.017270
0.022566
0.014675
0.015686
0.015619
0.019642
0.018924
0.014039
0.020857
0.016782
0.016993
0.015207
0.015901
0.016824
0.015188
0.020581
0.021033
0.015072
0.022507
0.011930
0.014282
0.022053
0.015010
0.012532
0.019290
0.012091
0.013270
0.019480
0.013797
0.010763
0.018208
0.014704
0.013073
0.018926
0.016448
0.017357
0.010808
-0.000412
0.012950
0.001925
0.014097
0.001921
0.007930
0.007459
0.011971
0.006855
0.001440
0.001868
-0.001889
-0.003009
-0.002429
-0.003578
-0.001805
-0.003351
-0.003367
-0.009822
-0.026418
-0.009317
-0.013527
0.000681
0.001899
0.001557
0.000977
0.001471
0.004140
0.023988
0.029166
0.028841
0.036381
0.025088
0.045157
0.010766
-0.018072
-0.017658
-0.005257
-0.000519
-0.000881
0.000051
0.000457
0.000881
0.000769
0.000666
0.002358
0.004786
0.002515
0.001136
0.028027
0.020317
0.021016
0.022926
0.019688
0.018587
0.012440
0.011238
0.006026
0.004657
0.003896
0.002429
0.002793
0.004902
0.004773
0.005526
0.008231
0.007814
0.014086
0.014586
0.014755
0.014724
0.013174
0.019199
0.012233
0.010570
0.013859
0.023048
0.023759
0.019626
0.021175
0.030785
0.020088
0.036063
0.018780
0.015583
0.019479
0.016037
0.017227
0.028833
0.015293
0.021688
0.019734
0.019967
0.019979
0.028573
0.025554
0.029878
0.028177
0.026890
0.022342
0.025739
0.031759
0.025538
0.028602
0.028242
0.022534
0.028227
0.020540
0.023081
0.021421
0.018676
0.017635
0.021456
0.018066
0.013813
0.024346
0.021349
0.029316
0.033669
0.033380
0.038731
0.029822
0.020789
0.010258
0.016065
0.015559
0.009108
0.010202
0.010228
0.008526
0.015895
0.010624
0.012996
0.012368
0.016986
0.015860
0.016615
0.013608
0.013592
0.016092
0.012761
0.014372
0.014918
0.013657
0.018894
0.021586
0.015898
0.011779
0.021724
0.014351
0.016301
0.020185
0.017170
0.023206
0.022812
0.025076
0.030985
0.019703
0.025612
0.027426
0.028308
0.017892
0.028052
0.024095
0.013529
0.002360
0.003826
0.006607
0.000321
0.013787
0.000100
0.006261
0.005629
0.010746
0.002869
0.002889
0.000603
0.004907
-0.000901
-0.006183
-0.001268
-0.000624
0.002070
-0.000854
0.003290
0.010580
0.009665
0.011823
0.013497
0.015144
0.016385
0.018597
0.022620
0.027290
0.028837
0.028346
0.032170
0.033425
0.007971
0.002079
0.001266
0.012427
-0.000353
0.002584
0.006714
0.001167
0.009153
0.005548
0.008355
0.007591
0.000342
0.007024
0.001544
0.006160
0.000034
-0.000343
-0.000591
-0.001548
-0.000419
0.012542
0.004637
0.003307
0.002581
0.005709
0.002662
0.001310
0.001252
0.001421
0.001607
0.007797
0.001220
0.000354
-0.000322
-0.000548
-0.002458
-0.003412
-0.009905
-0.002014
-0.007668
0.000858
0.004513
0.012974
0.011872
0.012513
0.018586
0.027158
0.030269
0.000708
0.002245
0.014710
0.029839
0.010189
0.003048
0.000508
0.000763
0.022466
0.021096
0.015445
0.017884
0.039335
0.014329
0.030672
0.014155
0.006402
0.013729
0.004927
0.016303
0.000344
0.005884
0.016372
0.016205
0.046147
0.032403
0.015302
0.006997
0.012859
0.003324
0.024654
0.081172
0.059977
0.049776
0.028727
0.016744
0.009834
0.002489
0.001918
0.002756
0.006608
0.118699
0.006853
-0.017243
-0.050227
-0.019694
-0.002519
0.008245
0.003191
0.001917
0.001723
0.002160
0.000880
0.000792
-0.000146
0.000161
0.002733
0.009553
0.000383
0.003023
0.000600
-0.001342
0.001048
0.001284
0.009102
0.000220
0.001245
-0.000384
-0.000553
0.000468
-0.000263
0.011883
0.010856
0.013938
0.014444
0.019890
0.030027
0.040088
0.037249
0.032248
0.031683
0.034827
0.032875
0.025711
0.034644
0.051352
0.026321
0.038455
0.034865
0.005025
-0.000690
-0.001239
-0.002257
-0.000553
0.000948
0.000618
0.001025
0.002317
0.003600
0.012837
0.058793
0.077856
0.085606
0.059813
0.062657
0.019459
0.005386
0.003592
0.009912
0.007940
0.001467
0.000547
0.001337
0.001762
0.004889
0.014305
0.048100
0.050365
0.031384
0.035114
-0.004745
-0.009726
-0.017796
-0.012981
0.006021
-0.003425
0.030229
-0.013576
-0.000563
0.010758
0.004007
0.005814
0.003813
0.003032
0.011196
0.013260
0.021120
-0.000076
0.006312
0.009623
0.006951
0.002207
0.002305
0.001426
0.004061
0.008284
0.031989
0.047053
0.033919
0.025808
0.004392
0.003253
0.002595
0.004258
0.005468
0.007735
0.003472
0.001537
0.000063
0.000623
-0.001289
-0.001453
-0.006277
-0.000142
0.041685
0.020642
0.020013
0.022846
0.034972
0.052018
0.054832
0.159742
0.084939
0.086612
0.060942
0.035867
0.044587
0.048054
0.088318
0.021354
0.020183
0.024080
0.030280
0.083521
0.052465
0.035084
0.033219
0.019362
0.046880
0.019077
0.057231
0.018121
0.036102
0.015430
0.049642
0.026890
0.036512
0.028606
0.048993
0.041252
0.068164
0.049472
0.030705
0.047430
0.014892
0.033589
0.006491
0.005745
0.004769
0.006806
0.019609
0.050469
0.017164
-0.002645
-0.023459
-0.037086
-0.086386
-0.048844
0.055032
0.023711
0.004329
0.003840
0.003745
0.005090
0.005352
0.003443
0.001995
0.001722
0.001217
0.000833
0.004559
0.016015
0.032483
0.034830
0.043466
0.058018
0.035258
0.010014
0.007375
0.004074
0.004421
0.000933
0.027344
0.018692
0.006264
-0.022036
-0.004705
-0.000507
0.000373
0.000479
0.000062
0.000422
0.000388
0.000669
0.001131
0.001771
0.004736
0.005545
0.013616
0.006339
0.002742
0.001411
0.002959
0.003248
0.015368
0.037685
0.039113
0.039905
0.041508
0.036041
0.041621
0.016425
0.028927
0.026583
0.027189
0.024571
0.018940
0.011709
0.010028
0.003632
0.002218
0.000102
0.001216
0.002157
0.001286
0.001407
0.004069
0.010510
0.009703
0.009677
0.019541
0.013317
0.017593
0.018888
0.015992
0.010116
0.026267
0.023732
0.024171
0.027486
0.037759
0.029133
0.039355
0.026691
0.027991
0.018124
0.018872
0.021629
0.024466
0.017317
0.026002
0.025813
0.017062
0.022087
0.023106
0.025202
0.027409
0.024687
0.024502
0.028913
0.039920
0.024837
0.024277
0.028186
0.027488
0.017157
0.024981
0.022722
0.025314
0.016191
0.020938
0.026575
0.024448
0.020119
0.017845
0.018262
0.020065
0.017369
0.032663
0.024628
0.043172
0.021432
0.023540
0.021862
0.016355
0.009422
0.011481
0.011638
0.009273
0.009025
0.007865
0.008970
0.010033
0.009496
0.008401
0.011706
0.011781
0.009580
0.013418
0.016370
0.013290
0.022594
0.017285
0.016548
0.015623
0.015075
0.020852
0.019723
0.034456
0.025702
0.028157
0.034808
0.016756
0.013608
0.027463
0.028227
0.020657
0.019197
0.027841
0.038093
0.031467
0.029790
0.046258
0.042070
0.033849
0.031089
0.007225
0.001656
0.003254
-0.001929
0.008244
0.014609
0.015720
0.014912
0.016717
0.017902
0.017641
0.019539
0.021737
0.026183
0.027805
0.033224
0.031248
0.002438
0.001047
0.005453
0.007848
0.011809
0.012588
0.023933
0.037370
0.041124
0.045029
0.047223
0.038988
0.040536
0.038000
0.046498
0.041584
0.036804
0.036338
0.029055
0.016764
0.002863
0.001588
0.002008
0.002942
0.003422
0.008361
0.013850
0.029228
0.040763
0.076551
0.059776
0.073422
0.054487
0.027827
0.016823
0.011235
0.013365
0.054286
0.051572
0.019422
0.009078
-0.019936
-0.000876
0.000650
0.006270
0.001836
0.001042
0.002134
0.000662
0.001888
0.004951
0.005350
0.006906
0.011030
0.006582
0.004246
0.005077
0.007324
0.012417
0.018506
0.036526
0.053081
0.054160
0.045457
0.044020
0.041462
0.025725
-0.000319
-0.000544
0.000895
0.001410
0.022383
-0.000352
-0.011485
0.005877
0.015506
0.012954
0.013453
0.020599
0.031210
0.038381
0.045600
0.054720
0.057986
0.055985
0.057973
0.045507
0.037849
0.048023
0.028030
0.024424
0.014376
0.008080
0.004967
0.004275
0.003792
0.008963
0.013028
0.023515
0.043932
0.081585
0.057305
0.063215
0.064902
0.030299
0.025842
0.024046
0.031102
0.045647
0.021913
0.011247
0.020335
0.051421
0.028375
0.041056
0.068999
0.031400
0.046439
0.050164
0.036445
0.041120
0.022502
0.020138
0.000563
-0.002325
-0.019392
-0.015316
-0.003580
-0.007952
-0.002006
-0.022977
-0.004898
-0.001516
0.023173
0.020761
0.020717
0.021148
0.022393
0.026094
0.026846
0.031174
0.028253
0.032170
0.034500
0.031814
0.030896
0.021401
0.013419
0.007566
0.000713
-0.002113
-0.001830
-0.003099
-0.000845
-0.003772
0.003699
0.007972
0.014962
0.019382
0.012717
0.025433
0.022392
0.019123
0.019962
0.019001
0.020571
0.019626
0.028584
0.032314
0.021927
0.022849
0.029649
0.019250
0.024980
0.018996
0.021208
0.019084
0.016803
0.019334
0.023109
0.015046
0.024220
0.026315
0.026985
0.022414
0.025237
0.021946
0.029433
0.020959
0.024622
0.026155
0.025139
0.023855
0.024176
0.026037
0.019706
0.014630
0.016566
0.015814
0.014134
0.016578
0.014939
0.016935
0.016039
0.013650
0.018720
0.030647
0.048477
0.024662
0.023728
0.018483
0.015668
0.016181
0.008598
0.009058
0.009400
0.008544
0.007213
0.006675
0.005992
0.007191
0.006605
0.007821
0.008212
0.009697
0.010735
0.012596
0.010595
0.015223
0.010570
0.013039
0.015299
0.013644
0.018518
0.020066
0.019880
0.020948
0.015499
0.021017
0.017555
0.021607
0.025132
0.017391
0.021000
0.027128
0.026851
0.028872
0.027649
0.039245
0.047086
0.045640
0.053680
0.048938
0.039213
0.018948
0.004004
0.005041
-0.000608
-0.015740
-0.013534
0.005124
-0.000670
0.009350
0.053847
0.049265
0.041387
0.025491
0.027699
0.038547
0.061819
0.082951
0.103437
0.121111
0.048630
0.063461
0.110064
0.106563
0.048966
0.071139
0.039246
0.043274
0.048745
0.074624
0.069785
0.065269
0.066833
0.039728
0.028136
0.041476
0.032592
0.030685
0.019607
0.061135
0.036633
0.043735
0.039175
0.039854
0.042519
0.075452
0.049890
0.081378
0.083088
0.061650
0.068017
0.037776
0.072791
0.030155
0.077644
0.044877
0.066456
0.047530
0.053366
0.038712
0.044880
0.038253
0.033780
0.035715
0.021085
0.014589
0.010991
0.005435
0.010476
0.021342
0.036793
0.016895
0.003352
0.000273
-0.019679
-0.018886
-0.080397
-0.074401
-0.030054
0.049887
0.025932
0.010089
0.011265
0.007252
0.007635
0.009366
0.009882
0.008443
0.008595
0.005067
0.002246
0.000939
0.005699
0.020673
0.024062
0.024922
0.021581
0.014363
0.002584
0.011521
0.015039
0.008696
0.010445
0.007088
0.010409
0.006957
0.010140
0.044278
0.012467
0.007287
0.006728
0.008396
0.016153
0.025603
0.033265
0.050201
0.062609
0.046342
0.060990
0.087839
0.047210
0.053766
0.051959
0.056032
0.035053
0.033740
0.032409
0.047945
0.047573
0.060244
0.050244
0.038534
0.024614
0.028966
0.030884
0.046195
0.056694
0.045127
0.037718
0.036068
0.031626
0.026621
0.010083
-0.000016
0.002939
-0.002608
-0.005213
-0.001711
-0.003415
-0.003139
0.000065
-0.000134
-0.008359
-0.008371
0.000998
0.000348
0.001681
0.003522
0.004468
0.040075
0.021142
0.024626
0.003141
0.001920
0.002841
-0.009008
-0.006010
-0.000271
0.003762
0.004327
0.004777
0.017844
0.050190
0.024448
0.026079
0.013462
0.010759
0.005629
0.004599
0.010373
0.020044
0.035688
0.036422
0.037516
0.033529
0.011554
0.007693
0.009291
0.006729
0.010250
0.009008
0.004668
0.004487
0.001664
0.000697
0.001664
0.042579
0.050011
0.059844
0.058024
0.049693
0.043931
0.040335
0.033176
0.024759
0.028525
0.027902
0.026530
0.029003
0.031405
0.027768
0.033651
0.032314
0.035374
0.035312
0.025688
0.019120
0.014940
0.007429
0.000554
-0.005633
-0.003642
-0.003944
-0.004512
0.005782
0.010851
0.017811
0.020928
0.023467
0.028002
0.022038
0.020619
0.016163
0.014877
0.013600
0.019339
0.035869
0.012124
0.014611
0.017323
0.018048
0.024344
0.025759
0.019585
0.017170
0.017269
0.016126
0.019551
0.022756
0.017950
0.020843
0.024327
0.027264
0.021578
0.025139
0.028670
0.026257
0.024619
0.024760
0.028334
0.022369
0.020486
0.021324
0.015801
0.016893
0.014558
0.014467
0.014383
0.015248
0.016958
0.016912
0.014093
0.013773
0.019994
0.020913
0.014784
0.015139
0.023151
0.020274
0.022300
0.017330
0.010842
0.010014
0.006232
0.006688
0.006558
0.005983
0.005799
0.006324
0.006873
0.006241
0.007611
0.010035
0.010882
0.012046
0.007527
0.010066
0.016187
0.016903
0.012826
0.014871
0.019854
0.019477
0.014984
0.018245
0.019435
0.017604
0.021492
0.024946
0.029981
0.024756
0.024960
0.019278
0.030634
0.032194
0.037663
0.035593
0.041353
0.048003
0.053488
0.054397
0.052554
0.044288
0.005045
0.005900
0.005808
-0.009022
0.003907
0.005845
0.000635
-0.001739
-0.000891
0.006709
0.004930
0.092928
0.093979
0.069994
0.084105
0.051697
0.092238
0.060138
0.059333
0.045616
0.077073
0.014251
0.015729
0.017763
0.019343
0.020595
0.026033
0.030651
0.043435
0.055697
0.080994
0.051866
0.055569
0.062820
0.058851
0.048007
0.081351
0.054437
0.040306
0.033755
0.037872
0.047343
0.039139
0.071326
0.036258
0.048948
0.035034
0.041111
0.032053
0.031575
0.034518
0.047760
0.042963
0.041721
0.035482
0.034642
0.027109
0.015419
0.007360
-0.004664
0.006467
0.004981
0.009074
0.024264
0.004833
0.013916
0.007926
0.006058
0.015039
0.030564
0.041994
0.033440
0.032233
0.042185
0.032364
0.016776
0.012644
0.013887
0.022552
0.009319
0.004935
0.004142
0.001433
0.002188
0.003589
0.019110
0.017758
0.017869
0.015157
0.014372
0.015752
0.022321
0.015982
0.027340
0.025286
0.039215
0.051326
0.053290
0.059985
0.057079
0.046488
0.040653
0.041174
0.038388
0.016683
0.011541
0.014206
0.025734
0.028855
0.021152
0.004745
0.001495
-0.000120
-0.010856
-0.014876
-0.066769
-0.083746
-0.084032
-0.028580
0.034234
0.027505
0.021363
0.017635
0.012565
0.011501
0.014106
0.016140
0.015131
0.015612
0.012599
0.009809
0.006749
0.008203
0.034378
0.034269
0.032649
0.030537
0.031469
0.035042
0.032170
0.039550
0.035019
0.031738
0.013451
0.012996
0.006138
-0.005882
-0.009506
-0.007690
-0.005380
0.010216
0.016259
0.015657
0.020976
0.027036
0.024988
0.028034
0.018582
0.013979
0.011490
0.014887
0.017386
0.007058
0.008350
0.003607
0.016932
0.020781
0.031714
0.020481
0.022996
0.020285
0.021735
0.023029
0.020980
0.017932
0.022820
0.028876
0.028337
0.019759
0.024217
0.028215
0.028606
0.022821
0.017322
0.027254
0.023054
0.024159
0.017329
0.017931
0.023050
0.016349
0.016748
0.013117
0.020814
0.014326
0.014066
0.014504
0.013049
0.014766
0.016044
0.017938
0.012330
0.007175
0.006432
0.011763
0.017258
0.013586
0.013494
0.009241
0.007368
0.005373
0.005438
0.006032
0.006746
0.003938
0.004610
0.003156
0.005609
0.005719
0.006706
0.006804
0.006808
0.007520
0.008273
0.009461
0.012747
0.010116
0.010879
0.016247
0.013491
0.018329
0.014729
0.011559
0.021045
0.015299
0.018405
0.022633
0.021746
0.019618
0.024026
0.024681
0.021690
0.028244
0.022862
0.032354
0.032918
0.043646
0.049068
0.055579
0.048911
0.056592
0.048392
0.043339
0.029119
0.004792
0.005527
0.025476
0.026944
0.017149
0.018878
0.030374
0.029815
0.034659
0.054956
0.049874
0.078395
0.069606
0.077929
0.088168
0.073605
0.062644
0.055158
0.045546
0.052739
0.045476
0.043665
0.050225
0.046841
0.037993
0.048294
0.049079
0.056241
0.035647
0.039374
0.034036
0.055855
0.038802
0.038708
0.038755
0.041172
0.044345
0.043529
0.039285
0.035627
0.033003
0.019245
0.010771
0.000817
0.003625
-0.003162
0.001694
-0.010055
-0.007874
-0.001446
-0.004390
-0.008313
-0.002149
-0.005388
-0.002263
-0.002495
-0.003449
-0.000979
0.000138
0.001769
-0.000133
-0.002109
-0.002814
0.000075
0.001332
0.038349
0.053942
0.018572
0.006920
0.010877
0.009587
0.011466
0.025381
0.041741
0.053026
0.060362
0.059244
0.063364
0.052455
0.055239
0.052255
0.026829
0.044237
0.008064
0.006095
0.009964
0.030838
0.023874
0.041419
0.035572
0.030651
0.020134
0.061632
0.042187
0.056848
0.046328
0.032559
0.031372
0.018093
0.027396
0.031091
0.055961
0.044038
0.044213
0.043261
0.041586
0.036627
0.036888
0.060762
0.047197
0.065150
0.097453
0.067977
0.083024
0.012771
0.018927
0.039688
0.023775
0.017696
0.016180
0.006743
0.005380
0.007160
0.006601
0.027880
0.024007
0.032802
0.044360
0.052380
0.057328
0.056619
0.051607
0.043525
0.037075
0.038859
0.025333
0.027080
0.032030
0.031776
0.021773
0.009552
0.001584
0.000907
-0.003325
-0.008783
-0.001166
-0.039913
-0.067777
-0.086930
-0.077660
-0.028204
0.012275
0.020289
0.024191
0.019776
0.058049
0.075530
0.075196
0.076020
0.065389
0.119456
0.087206
0.074355
0.052606
0.100805
0.077856
0.035146
0.034412
0.031013
0.029496
0.036588
0.011310
-0.007331
-0.003588
-0.002240
-0.001987
0.012472
0.013199
0.020652
0.022670
0.025884
0.025928
0.019698
0.016501
0.009713
0.011144
0.009046
0.001768
0.009090
-0.000413
0.020951
0.018006
0.020409
0.019044
0.026586
0.023112
0.020417
0.021638
0.016684
0.023974
0.019937
0.026439
0.033367
0.021725
0.020738
0.022301
0.028100
0.021725
0.021195
0.023159
0.022067
0.023146
0.020636
0.017870
0.021449
0.021541
0.017398
0.017461
0.020496
0.015719
0.013568
0.014604
0.013510
0.012739
0.013255
0.014634
0.012477
0.006106
-0.002039
-0.004764
0.007378
0.008890
0.011363
0.010895
0.010093
0.008075
0.004492
0.004091
0.011304
0.033509
0.029503
0.027126
0.029615
0.026129
0.025494
0.015009
-0.001086
-0.002403
-0.000326
-0.000911
0.011415
0.012098
0.018885
0.021972
0.025435
0.024086
0.019966
0.012113
0.007626
0.007702
0.001029
-0.002558
0.003796
-0.001580
0.015148
0.014973
0.018861
0.024206
0.021698
0.019958
0.022517
0.015681
0.022739
0.027125
0.028139
0.029067
0.025162
0.022991
0.020346
0.030536
0.028723
0.024889
0.027168
0.034027
0.024096
0.026909
0.020657
0.017077
0.020809
0.025880
0.020386
0.020383
0.020734
0.016563
0.012684
0.013987
0.012378
0.012099
0.010315
0.008706
0.000719
-0.009297
-0.005537
0.000098
0.002344
0.006756
0.008586
0.008576
0.007745
0.003994
0.002845
0.003387
0.016642
0.019219
0.012606
0.020791
0.032447
0.028549
0.044215
0.058430
0.054101
0.036742
0.039135
0.043887
0.040341
0.055817
0.073793
0.117462
0.070414
0.091427
0.079071
0.110085
0.074507
0.099792
0.076684
0.079720
0.060374
0.069663
0.086348
0.072541
0.085205
0.083562
0.090814
0.075000
0.078765
0.071227
0.062213
0.003071
0.002278
0.002515
0.003518
0.003889
0.001190
0.000560
0.001123
-0.000430
0.001922
0.003205
0.002847
0.004696
0.007009
0.013333
0.015199
0.022644
0.047723
0.049068
0.054877
0.046125
0.029332
0.006571
0.017392
0.007020
0.031604
0.042132
0.038948
0.016835
0.012078
0.010035
0.008861
0.019783
0.039438
0.041257
0.030701
0.035317
0.051494
0.041434
0.033798
0.026932
0.018831
0.015400
0.010751
0.010707
0.007386
0.005124
0.003272
0.003384
0.011955
0.015989
-0.000761
-0.000527
0.000595
0.004729
0.011809
0.015350
0.019054
0.018919
0.021049
0.016879
0.009986
0.005918
0.002964
0.000238
0.016710
-0.007932
-0.000037
0.003626
0.010882
0.026441
0.020175
0.023573
0.021788
0.018993
0.015310
0.025429
0.022000
0.018841
0.027821
0.024892
0.020005
0.026807
0.025771
0.032359
0.024664
0.019163
0.022477
0.023580
0.024104
0.024898
0.023467
0.025020
0.021791
0.022565
0.020080
0.019588
0.024720
0.015445
0.013176
0.012344
0.010701
0.009017
0.007335
0.005883
-0.008136
-0.004289
-0.003353
0.001489
0.005324
0.008770
0.011832
0.006309
0.004549
0.002998
0.003120
0.004929
0.003503
0.003364
0.004606
0.006050
0.007195
0.005983
0.006388
0.006145
0.006177
0.008579
0.008890
0.010135
0.011261
0.012454
0.017951
0.017631
0.013843
0.016840
0.016569
0.021345
0.018215
0.020638
0.020984
0.028718
0.021951
0.033131
0.026124
0.023616
0.029867
0.025142
0.034724
0.040465
0.048541
0.053112
0.053119
0.050413
0.044776
0.031840
0.023013
0.031755
0.027125
0.066155
0.053484
0.055086
0.076566
0.065076
0.056987
0.036949
0.031887
0.028833
0.045482
0.026781
0.024584
0.011486
0.005358
0.002982
-0.001480
-0.007472
-0.003656
-0.007434
-0.035039
-0.064725
-0.063808
-0.034325
-0.013270
0.005047
0.022873
0.017197
0.018492
0.023469
0.013142
0.029397
0.033675
0.022928
0.041812
0.018645
0.023897
0.011669
0.014053
0.038940
0.042298
0.030718
0.017920
0.034326
0.037492
0.035951
0.024675
0.055823
0.065206
0.070334
0.070774
0.067612
0.073618
0.043038
0.046677
0.035000
0.002809
0.004051
0.005371
0.006426
0.006064
0.006328
0.006562
0.006882
0.007447
0.008681
0.012614
0.012253
0.013704
0.014020
0.013098
0.016744
0.015586
0.018224
0.021009
0.018636
0.018884
0.024289
0.023417
0.032636
0.022859
0.026943
0.024403
0.022535
0.029991
0.025586
0.032419
0.035968
0.037336
0.052905
0.045778
0.044892
0.038306
0.015894
0.005865
0.014769
0.023796
0.030900
0.034829
0.018716
0.084071
0.044859
0.045531
0.040977
0.040010
0.049442
0.045353
0.074320
0.070872
0.086196
0.076891
0.081849
0.091060
0.085228
0.097713
0.070875
0.075245
0.077330
0.068340
0.063878
0.045824
0.047283
0.042327
0.041355
0.039416
0.042000
0.042077
0.034968
0.036425
0.024293
0.016810
0.008686
0.002293
-0.001732
0.006743
0.004366
0.002936
0.005595
0.004671
0.006252
0.008418
0.003721
0.005273
0.003409
0.004129
0.004417
0.003529
0.003179
0.002296
0.040712
0.038321
0.043660
0.035514
0.032369
0.036962
0.046346
0.060803
0.058500
0.056164
0.053471
0.044997
0.036739
0.024393
0.019962
0.018650
0.015135
0.063856
0.071730
0.064264
0.066668
0.103931
0.075445
0.074735
0.054474
0.049458
0.037188
0.060216
0.025950
0.044981
0.045617
0.041700
0.025438
0.032248
0.023295
0.016609
0.021898
0.051032
0.044381
0.036682
0.062971
0.023218
0.026610
0.019803
0.015858
0.008071
0.003814
0.000055
-0.002554
-0.010828
-0.044942
-0.060184
-0.068427
-0.019842
-0.001763
0.007535
0.022598
0.024266
0.024545
0.018431
0.034341
0.023368
0.037612
0.065941
0.035155
0.057703
0.043778
0.035487
0.018991
0.027629
0.033660
0.039476
0.046342
0.040379
0.039948
0.047408
0.038604
0.040521
0.037225
0.033201
0.031657
0.019944
0.011379
0.006044
0.008672
-0.008963
0.006618
0.000862
-0.004041
0.002836
0.002442
0.006531
0.076812
0.103447
0.046332
0.063264
0.081422
0.082910
0.083791
0.069191
0.066919
0.039452
0.031937
0.037241
0.026885
0.022401
0.031958
0.031848
0.043638
0.051860
0.053872
0.079361
0.080433
0.070643
0.079930
0.073177
0.051250
0.066681
0.041612
0.074035
0.042570
0.052970
0.040873
0.051530
0.036391
0.049276
0.056312
0.036359
0.043918
0.045015
0.038903
0.043155
0.008503
0.012303
0.027351
0.046712
0.029700
0.032608
0.043453
0.052868
0.051704
0.042178
0.023793
0.015978
0.015338
0.011680
0.009215
0.007696
0.004107
0.012473
0.084326
0.065497
0.090917
0.083732
0.068269
0.061920
0.103629
0.060479
0.068280
0.064113
0.065783
0.054974
0.055827
0.030244
0.048465
0.062550
0.075149
0.091073
0.088137
0.080262
0.063129
0.044986
0.046171
0.030360
0.026451
0.030387
0.037974
0.031456
0.046310
0.066363
0.067090
0.048383
0.077191
0.076309
0.057851
0.059479
0.088334
0.048775
0.062619
0.058289
0.056155
0.055150
0.059024
0.036623
0.052218
0.039276
0.041111
0.042494
0.052370
0.042444
0.040304
0.033027
0.060008
0.036850
0.012859
0.032429
0.045313
0.056689
0.061111
0.058191
0.055130
0.047874
0.010591
0.012327
0.016722
0.026298
0.032906
0.029990
0.030899
0.045061
0.043155
0.035115
0.038232
0.039147
0.061695
0.074988
0.076191
0.084137
0.078099
0.088615
0.092545
0.093046
0.096808
0.095220
0.092799
0.080995
0.075468
0.082790
0.041775
0.062508
0.064030
0.050207
0.051086
0.022830
0.040571
0.031730
0.012767
0.007963
0.004828
0.002567
-0.001264
-0.009468
-0.020580
-0.049207
-0.059226
-0.027102
-0.022669
-0.008236
0.008741
0.020916
0.027713
0.032314
0.026722
0.036568
0.052830
0.049483
0.039915
0.063257
0.054713
0.057351
0.046891
0.042626
0.036429
0.036759
0.002506
0.003011
0.004376
0.005145
0.006437
0.008323
0.007073
0.007529
0.009131
0.009860
0.010798
0.013243
0.013884
0.015677
0.013523
0.019968
0.018765
0.030153
0.020950
0.022323
0.024567
0.028519
0.022321
0.025751
0.028055
0.027694
0.025047
0.022925
0.023387
0.027355
0.040465
0.062866
0.042372
0.051517
0.043378
0.035420
0.034145
0.011310
0.009867
0.007494
0.005914
0.004608
0.005724
0.008481
0.006223
0.038451
0.045850
0.045928
0.061427
0.064036
0.057445
0.050571
0.043154
0.032272
0.026794
0.007256
0.002856
0.044692
0.034709
0.035221
0.018098
0.018839
0.028283
0.036201
0.013680
0.013936
0.012781
0.009885
0.007576
0.005920
0.006312
0.007312
0.018739
0.028437
0.035483
0.029392
0.034562
0.045115
0.060125
0.027018
0.031752
0.024311
0.019652
0.016684
0.013779
0.014947
0.031901
0.050676
0.025707
0.037397
0.043268
0.048005
0.061260
0.052679
0.035669
0.031648
0.024380
0.026765
0.019476
0.024796
0.016085
0.007274
0.008291
0.089676
0.089793
0.112789
0.082992
0.079228
0.079676
0.039850
0.039707
0.018215
0.027507
0.019978
0.015294
-0.007887
-0.005805
0.006178
0.008987
0.006811
0.020474
0.023324
0.022781
0.023419
0.020157
0.030528
0.020384
0.020460
0.022900
0.031806
0.027582
0.031246
0.028947
0.033183
0.024107
0.023244
0.026444
0.031812
0.027217
0.022177
0.024005
0.021892
0.026203
0.029517
0.023875
0.020384
0.021934
0.023203
0.019460
0.064624
0.070146
0.068605
0.068519
0.058574
0.060265
0.044744
0.055222
0.029359
0.032171
0.013818
0.009092
0.007669
0.003625
0.000595
-0.002162
-0.015060
-0.029272
-0.072449
-0.080466
-0.051102
-0.002452
0.000376
0.100483
0.031991
0.035555
0.016492
0.064107
0.024017
0.048946
0.073362
0.061904
0.068762
0.079925
0.069321
0.059404
0.047191
0.044327
0.048894
0.053538
0.055819
0.017166
0.015268
0.012281
0.008922
0.006031
0.004062
0.000215
0.016813
0.029583
0.009973
0.042738
0.027512
0.043576
0.050673
-0.000982
-0.008403
0.000583
0.004303
0.007318
0.011409
0.037684
0.044811
0.038325
0.057905
0.035470
0.040806
0.033397
0.028317
0.030518
0.024525
0.017087
0.008515
-0.005479
0.004943
-0.015590
0.013570
0.000846
-0.005512
0.007455
0.008003
0.100798
0.086854
0.084833
0.066473
0.108230
0.115324
0.090065
0.099711
0.075360
0.063169
0.012203
0.013158
0.016191
0.019223
0.021726
0.034576
0.032297
0.043785
0.045350
0.040500
0.045205
0.042830
0.051719
0.064840
0.055803
0.074281
0.070688
0.076548
0.094303
0.099308
0.087193
0.109061
0.110028
0.106158
0.105620
0.001101
0.002272
0.004724
0.007982
0.008017
0.007743
0.010350
0.008839
0.006630
0.009009
0.007348
0.008217
0.010645
0.008430
0.012340
0.012751
0.016081
0.017329
0.012627
0.012963
0.016276
0.021082
0.027814
0.023089
0.025697
0.039978
0.035273
0.033915
0.026855
0.022537
0.023370
0.024705
0.022764
0.023146
0.029039
0.014608
0.026134
0.012636
0.020552
0.037334
0.046078
0.033423
0.034796
0.042199
0.061992
0.046356
0.014487
0.013724
0.009893
0.015377
0.015471
0.012187
0.007048
0.007156
0.000168
-0.003280
-0.003042
-0.015727
-0.005481
0.000392
0.004808
0.009346
0.009661
0.006566
0.003768
0.003503
0.001983
0.005324
0.008150
0.010734
0.009022
0.009703
0.009411
0.010369
0.010812
0.013796
0.005615
0.106697
0.099126
0.063352
0.074762
0.082961
0.089151
0.083309
0.059166
0.064278
0.036066
0.038869
0.035113
0.040830
0.037876
0.061217
0.043686
0.073451
0.064278
0.087264
0.060289
0.083986
0.056320
0.068876
0.051078
0.050809
0.052039
0.045583
0.044788
0.050292
0.035566
0.041394
0.036881
0.036194
0.034921
0.050450
0.040544
0.007986
0.009695
0.012249
0.009401
0.009882
0.009617
0.009954
0.012299
0.013429
0.014864
0.018783
0.017216
0.016670
0.018952
0.022084
0.027074
0.030551
0.033094
0.029449
0.034276
0.032497
0.031678
0.022238
0.020493
0.020476
0.021330
0.006857
0.061581
0.062849
0.079658
0.076995
0.062949
0.063196
0.052960
0.046440
0.037775
0.080269
0.032632
0.014257
0.018727
0.011499
0.008774
0.003529
0.000734
-0.000527
-0.003689
-0.008954
-0.030919
-0.066346
-0.049707
-0.032869
-0.009619
0.051310
0.052485
0.048903
0.046291
0.062822
0.031066
0.083218
0.000416
-0.003571
0.017905
0.017570
0.025219
0.025388
0.027656
0.022932
0.020288
0.022445
0.021322
0.026669
0.025104
0.025214
0.024491
0.026450
0.021507
0.027975
0.022922
0.028206
0.032706
0.025538
0.027735
0.027751
0.027875
0.029488
0.030297
0.025360
0.031177
0.024878
0.031041
0.001032
0.001016
0.014742
0.021374
0.024331
0.028594
0.025252
0.021123
0.023332
0.026900
0.021673
0.025122
0.022475
0.021828
0.026652
0.019624
0.029039
0.016393
0.032077
0.035042
0.023083
0.027622
0.031037
0.027252
0.027356
0.029391
0.028310
0.024211
0.030081
0.026801
0.030807
0.034981
0.023949
0.025332
0.019083
0.019007
0.016197
0.013167
0.006815
0.003603
0.001147
-0.003693
-0.012456
-0.016738
-0.007727
-0.003326
0.002959
0.006137
0.008502
0.010485
0.011185
0.011382
0.010191
0.009703
0.003756
0.003171
0.004196
0.009341
0.010506
0.010991
0.010396
0.011038
0.120149
0.109250
0.109498
0.087554
0.094011
0.103933
0.014404
0.015765
0.014643
0.015245
0.025439
0.025296
0.025365
0.036070
0.035633
0.039143
0.049777
0.045836
0.033622
0.043014
0.038921
0.072929
0.057432
0.062890
0.069349
0.083287
0.085313
0.081296
0.086144
0.100155
0.126986
0.023084
0.014638
0.038819
0.041439
0.037741
0.033541
0.046159
0.039453
0.044745
0.036792
0.038626
0.019009
0.021050
0.014766
0.017220
0.049617
0.042234
0.046816
0.029357
0.029830
0.036538
0.020060
0.025834
0.030527
0.024402
0.010026
0.002501
-0.010041
0.016116
0.091540
0.085685
0.077716
0.076115
0.063017
0.100827
0.075210
0.068153
0.070738
0.062828
0.048334
0.059359
0.052779
0.036205
0.035682
0.024094
0.018060
0.012026
0.012618
0.008275
0.004577
0.001555
0.000217
-0.002971
-0.001221
-0.002293
-0.026603
-0.054076
-0.046398
-0.011494
-0.005474
0.048464
0.061707
0.052249
0.068126
0.075800
0.051999
0.080686
0.055755
0.074049
0.074299
0.073262
0.075926
0.061920
0.057413
0.061433
0.062752
0.029863
0.020548
0.115341
0.078926
0.101165
0.076858
0.073065
0.083302
0.080558
0.076163
0.070673
0.063815
0.045554
0.039244
0.053310
0.059900
0.036216
0.072286
0.068112
0.086457
0.065187
0.085248
0.087174
0.078007
0.074377
0.071478
0.069292
0.077533
0.049530
0.054310
0.054872
0.058465
0.044855
0.054337
0.040752
0.041767
0.038295
0.046578
0.036022
0.044016
0.040325
0.046676
0.040259
0.009996
0.009801
0.009904
0.013340
0.009831
0.013818
0.012595
0.015437
0.016857
0.017206
0.017696
0.017575
0.025093
0.025486
0.029641
0.022117
0.031567
0.036784
0.029953
0.030916
0.019058
0.017835
0.026255
0.021822
0.019975
0.018490
0.015037
0.010238
0.002567
0.000976
-0.005502
-0.011519
-0.021736
-0.013847
-0.013284
0.001234
0.006367
0.007199
0.003559
0.008145
0.011196
0.009914
0.010044
0.008757
0.006500
0.004525
0.012601
0.010480
0.013324
0.010047
0.015567
0.013201
0.013749
0.015706
0.014524
0.013579
0.014628
0.017389
0.018703
0.015426
0.020814
0.025423
0.023925
0.032101
0.034692
0.037988
0.031462
0.040501
0.045157
0.037180
0.052161
0.046080
0.051819
0.063742
0.060117
0.066868
0.079081
0.073739
0.088773
0.092774
0.097966
0.088733
0.100053
0.030339
0.037240
0.035123
0.028087
0.026612
0.025079
0.023611
0.028981
0.031658
0.068548
0.076001
0.085021
0.077799
0.077528
0.051035
0.060999
0.054462
0.051202
0.067117
0.063711
0.079171
0.076333
0.089749
0.091884
0.062294
0.078011
0.075531
0.105583
0.054425
0.078613
0.081358
0.076897
0.069771
0.056270
0.064254
0.042407
0.069763
0.042599
0.055400
0.031719
0.042082
0.029796
0.033513
0.064265
0.039320
0.039785
0.037195
0.025066
0.019917
0.035438
0.044731
0.043380
0.038839
0.027326
0.054347
0.038239
0.038140
0.032726
0.029807
0.020410
0.027722
0.014131
0.016886
0.092461
0.087079
0.079396
0.084777
0.073410
0.061737
0.067978
0.068663
0.063040
0.050868
0.048640
0.048294
0.047483
0.025447
0.030316
0.019995
0.016188
0.012420
0.012894
0.005173
0.001358
-0.000360
-0.004884
-0.033117
0.000047
-0.024400
-0.040747
-0.035694
-0.012666
-0.003288
0.009931
0.009350
0.037807
0.022188
0.051668
0.053214
0.048738
0.061029
0.070475
0.086911
0.068541
0.075850
0.087063
0.093366
0.087308
0.081112
0.084937
0.073746
0.080503
0.073090
0.010060
0.010523
0.009223
0.010989
0.005334
0.009796
0.012928
0.013045
0.015331
0.018838
0.016764
0.015235
0.012284
0.018850
0.012153
0.013097
0.010637
0.031816
0.022022
0.022984
0.028203
0.016951
0.027213
0.027093
0.026636
0.031009
0.038103
0.032151
0.032758
0.032783
0.032054
0.031519
0.032569
0.040959
0.029968
0.035667
0.018286
0.017053
0.008929
0.028937
0.019080
0.023009
0.020816
0.027164
0.039241
0.027124
0.030056
0.032442
0.041091
0.048947
0.051874
0.049648
0.054463
0.056827
0.066187
0.032373
0.036642
0.040843
0.040052
0.049706
0.031198
0.039786
0.039758
0.028366
0.017752
0.021925
0.015873
0.016813
0.026163
0.034955
0.030933
0.028832
0.080105
0.082455
0.087362
0.080065
0.051593
-0.000157
-0.000363
0.000247
0.006805
0.008975
0.025217
0.055161
0.061309
0.049912
0.054191
0.066926
0.071373
0.091377
0.095608
0.090734
0.105200
0.097907
0.083192
0.087283
0.078761
0.087610
0.083094
0.037026
0.028560
0.021309
0.026401
0.032864
0.030473
0.035724
0.037299
0.033613
0.041718
0.030316
0.036248
0.038454
0.042487
0.047689
0.038838
0.044733
0.038665
0.027783
0.031113
0.025406
0.021495
0.019854
0.017443
0.015733
0.003230
0.000026
-0.007870
-0.001595
-0.017707
-0.019729
-0.003744
0.008079
0.012423
0.011534
0.012927
0.014290
0.018016
0.018540
0.015592
0.015266
0.020368
0.024481
0.025505
0.030992
0.034093
0.045593
0.083333
0.067103
0.058580
0.068026
0.060130
0.049205
0.010715
0.011972
0.008377
0.008022
0.010548
0.017928
0.020798
0.024330
0.019418
0.020365
0.014094
0.018174
0.022404
0.016966
0.012726
0.016807
0.012485
0.009797
0.011537
0.013229
0.013138
0.013048
0.014370
0.017880
0.015880
0.022682
0.026506
0.030867
0.036363
0.037360
0.030588
0.010935
0.013357
0.017160
0.018188
0.021320
0.023187
0.023415
0.031241
0.024169
0.035719
0.058026
0.046979
0.040607
0.036196
0.054465
0.028065
0.040385
0.051660
0.030106
0.044174
0.029904
0.027312
0.085040
0.071750
0.077922
0.066096
0.087624
0.082022
0.075167
0.079008
0.084710
0.093033
0.061761
0.080425
0.070218
0.077286
0.028360
0.033311
0.032679
0.017369
0.017525
0.015412
0.016040
0.016817
0.024606
0.016452
0.036121
0.045033
0.040595
0.047500
0.050567
0.053698
0.063271
0.059870
0.065524
0.060689
0.061428
0.053860
0.046591
0.038205
0.025951
0.034179
0.035007
0.028256
0.033767
0.031258
0.029223
0.036656
0.037672
0.032193
0.041467
0.048264
0.042446
0.046910
0.032400
0.043553
0.035063
0.039622
0.033691
0.025818
0.023180
0.021028
0.018700
0.011880
0.005076
0.000688
-0.013668
-0.003616
-0.033460
-0.026213
-0.016818
-0.010562
-0.005874
-0.003729
0.000963
0.006734
0.012529
0.013603
0.011197
0.011307
0.013095
0.015573
0.018162
0.028433
0.017212
0.022965
0.086388
0.088974
0.065276
0.031264
0.035721
0.036001
0.072690
0.075662
0.087944
0.090736
0.085118
0.098395
0.102586
0.106091
0.106242
0.104343
0.087954
0.087137
0.080659
0.022007
0.039165
0.028003
0.029773
0.017005
0.011835
0.010958
0.005062
0.003961
0.000600
-0.005673
-0.007118
-0.010438
-0.007062
-0.026671
-0.029311
-0.016102
-0.003846
0.021051
0.014064
0.013988
0.015223
0.022586
0.018873
0.021046
0.032551
0.019137
0.029894
0.050378
0.034101
0.047858
0.052296
0.056984
0.069558
0.063264
0.065447
0.056543
0.072541
0.053598
0.056390
0.044918
0.080361
0.051691
0.077606
0.050747
0.046957
0.058400
0.045688
0.034461
0.038336
0.037749
0.041562
0.047539
0.033110
0.025296
0.021341
0.024093
0.016294
0.017481
0.008083
0.013038
0.012030
0.013244
0.014432
0.014849
0.016266
0.011304
0.014785
0.033560
0.026492
0.039720
0.032970
0.042954
0.044423
0.047451
0.044647
0.054835
0.041570
0.038283
0.039544
0.046479
0.047432
0.038225
0.029561
0.028391
0.024268
0.022237
0.017861
0.013295
0.006953
0.000671
-0.005122
-0.023206
-0.045883
-0.036353
-0.011545
-0.021130
-0.018363
-0.008742
-0.002336
0.000092
0.004075
0.009428
0.014283
0.016441
0.015774
0.015601
0.018108
0.024558
0.020762
0.025115
0.029067
0.026526
0.100274
0.077912
0.091954
0.079652
0.100152
0.068711
0.077333
0.109795
0.093183
0.058557
0.094433
0.072961
0.052185
0.068111
0.035334
0.032984
0.032323
0.022758
0.012521
0.014886
0.017632
0.017201
0.015132
0.011054
0.026645
0.086455
0.102158
0.102267
0.100099
0.086683
0.100893
0.108501
0.076602
0.092897
0.027869
0.045563
0.033692
0.044014
0.050965
0.038491
0.041891
0.051912
0.045540
0.065059
0.050513
0.067388
0.050881
0.049996
0.043503
0.035909
0.030022
0.026154
0.021154
0.017720
0.011967
0.006339
0.001092
-0.004506
-0.027647
-0.028563
-0.020160
-0.000886
-0.036876
-0.027623
-0.006137
-0.006784
-0.000139
0.000682
0.010370
0.015572
0.019306
0.022221
0.020901
0.018223
0.021723
0.038183
0.031116
0.027533
0.047925
0.023312
0.028347
0.068120
0.057578
0.054817
0.054737
0.049126
0.044598
0.039548
0.042160
0.042956
-0.006461
-0.018170
-0.030586
-0.050795
-0.002161
0.005268
0.001144
-0.009497
-0.018213
0.015453
0.014335
0.013340
0.020647
0.014106
0.020832
0.023102
0.020559
0.024831
0.028246
0.026936
0.031781
0.051367
0.041340
0.049955
0.045675
0.054897
0.061291
0.075576
0.082448
0.046818
0.050092
0.045274
0.054202
0.047163
0.094720
0.105396
0.070914
0.099073
0.076929
0.089569
0.088578
0.102095
0.083104
0.083929
0.085620
0.043822
0.069202
0.067308
0.020611
0.039139
0.034775
0.028249
0.020109
0.017650
0.012587
0.010402
0.011834
0.018806
0.014125
0.013223
0.019700
0.025517
0.024476
0.027233
0.057538
0.064372
0.087405
-0.001661
-0.008994
-0.034940
-0.055921
-0.026981
-0.005148
-0.005590
-0.003027
0.000835
0.007018
0.017619
0.036799
0.045561
0.086101
0.077186
0.059674
0.035099
0.041098
0.041043
0.042789
0.048296
0.066977
0.045488
0.053458
0.053908
0.056799
0.064038
0.055854
0.046267
0.057071
0.038101
0.032344
0.027557
0.020431
0.016620
0.010653
0.006228
0.001161
-0.003198
-0.016879
-0.021061
-0.026589
-0.004861
0.024371
0.032385
0.057481
0.058582
0.050590
0.081322
0.060669
0.069960
0.050511
0.045868
0.044474
0.042555
0.046965
0.044924
0.040095
0.030649
0.022018
0.018142
0.014931
0.006111
0.003692
0.086690
0.032046
0.032138
0.029217
0.026986
0.029560
0.025321
0.017610
0.024301
0.016285
0.016378
0.011856
0.018992
0.019490
0.028672
0.027659
0.030339
0.040116
0.030023
0.034923
0.041317
0.030020
0.038689
0.044123
0.046918
0.080117
0.051461
0.038559
0.062106
0.054989
0.051068
0.087947
0.103146
0.106320
0.080117
0.096297
0.109327
0.096547
0.064044
0.080133
0.061689
0.075565
0.068098
0.073549
0.043503
0.049286
0.052465
0.045301
0.099618
0.039632
0.042628
0.046800
0.055557
0.056807
0.048125
0.043399
0.045716
0.037626
0.038997
0.055183
0.045627
0.051683
0.069757
0.071752
0.072943
0.077251
0.057869
0.060467
0.059393
0.047952
0.044394
0.035456
0.029742
0.019956
0.012419
0.009370
0.003407
0.001378
-0.002682
-0.018228
-0.037600
-0.063015
-0.035714
-0.016390
-0.020287
-0.000623
0.001011
0.000446
0.010127
0.015029
0.024732
0.026629
0.025993
0.029206
0.032873
0.038442
0.038252
0.040189
0.044654
-0.000786
-0.000812
0.000714
0.003407
0.009278
0.020007
0.033308
0.049904
0.067874
0.077468
0.077340
0.000964
0.001354
0.002191
0.006605
0.013208
0.024875
0.033067
0.047519
0.058732
0.071053
0.083401
0.093742
0.085449
0.040981
0.041955
0.041102
0.040428
0.035365
0.027992
0.025898
0.028467
0.026299
0.029578
0.015922
0.025909
0.098799
0.134593
0.099544
0.083609
0.077269
0.075279
0.084981
0.054281
0.069600
0.050652
0.061775
0.054413
0.047625
0.057472
0.036957
0.003703
0.006728
0.039843
0.037827
0.037141
0.037958
0.033258
0.028452
0.010318
0.030563
0.017924
0.023557
0.034426
0.043526
0.056633
0.068339
0.081461
0.097182
0.076547
0.110141
0.088141
0.114067
0.079578
0.083741
0.075272
0.078856
0.082445
0.065363
0.070549
0.046850
0.072831
0.069477
0.056954
0.061371
0.071483
0.069587
0.062761
0.049972
0.040143
0.028151
0.080012
0.051237
0.070944
0.067436
0.055437
0.032785
0.070894
0.078217
0.086488
0.078771
0.074061
0.000957
0.004407
0.001598
0.001208
0.000635
0.001769
0.040792
0.083766
0.051835
0.075007
0.020104
0.082199
0.006005
0.000435
0.001406
0.050486
0.036689
0.042526
0.015178
0.017343
0.060833
0.088111
0.034821
0.020970
0.031261
0.018447
0.021098
0.015663
0.008936
0.003624
0.000414
0.020433
0.015933
0.021952
0.014598
0.017270
0.116959
0.110451
0.093011
0.117351
0.116641
0.123555
0.115672
0.108990
0.087846
0.078145
0.063256
0.083161
0.041993
0.062469
0.068595
0.029415
0.020437
0.027884
0.004576
0.005249
0.005931
0.041757
0.036665
0.029280
0.027776
0.028313
0.019914
0.008099
0.013339
0.004889
0.002556
0.005940
0.018788
0.024234
0.042844
0.037144
0.086236
0.108353
0.083075
0.030459
0.034498
0.028543
0.081552
0.107893
0.095946
0.093571
0.092845
0.095339
0.042996
0.037926
0.044329
0.028053
0.026180
0.017272
0.044904
0.045210
0.068190
0.016876
0.026348
0.017509
0.017435
0.022281
0.030071
0.022121
0.035283
-0.009241
0.012546
0.006473
-0.003462
-0.001570
0.001186
-0.002844
0.000430
0.003732
0.004083
0.001592
0.000874
-0.000051
-0.000351
-0.000137
0.010009
0.004013
0.005149
0.002297
-0.000467
-0.000853
0.001923
0.000169
-0.000242
0.001895
0.005489
0.001698
0.001853
0.000513
0.000909
0.001207
0.000318
0.002184
0.000784
0.000679
0.001965
0.000464
0.001924
0.002342
0.010403
0.003531
0.005220
0.003272
0.002399
-0.000140
0.000085
0.000598
0.000189
0.000293
0.000151
0.000283
0.000266
0.000680
0.001221
0.002185
0.001832
0.001827
0.000357
-0.000760
-0.000938
0.001324
0.016853
0.014957
0.013717
0.011411
0.008052
0.006049
0.003358
0.002310
0.000662
-0.000668
-0.001909
-0.001147
-0.000681
-0.000075
0.000714
0.001009
-0.000323
-0.002630
-0.000535
-0.000629
0.003798
0.025107
0.002337
-0.006952
-0.003955
0.000452
-0.007654
0.000070
0.002619
0.003275
0.002169
0.002703
0.005354
0.005844
0.006560
0.006776
0.008969
0.008032
0.011923
0.007917
0.014254
0.007919
0.001155
0.001222
-0.000734
0.001283
0.002966
0.004547
0.002371
0.010515
-0.000714
-0.007396
-0.001339
0.000275
0.002214
0.002623
0.004221
0.006200
0.007843
0.006027
0.012506
0.004201
0.015887
0.003801
0.017248
0.012078
0.011754
0.024870
0.016636
0.029081
0.020093
0.035793
0.018827
0.034022
0.029732
0.019990
0.035193
0.026929
0.024409
0.029753
0.023578
0.029069
0.017715
0.026714
0.016510
0.014708
0.019777
0.009639
0.022969
0.014887
0.006326
0.008862
0.008091
0.011416
0.016079
0.013897
0.008716
0.009118
0.014759
0.010584
0.016627
0.013381
0.010266
0.015508
0.020701
-0.000695
-0.000227
0.002906
0.001159
-0.000573
-0.004454
0.002557
-0.000828
-0.001492
-0.000850
-0.000379
0.000266
0.000339
0.008370
0.000183
-0.003172
0.000929
-0.000380
-0.001730
0.000330
0.003198
0.004681
0.003080
0.003932
-0.000264
-0.000528
0.001049
-0.000924
0.001176
-0.000542
0.001286
-0.001536
-0.007193
-0.002069
-0.010702
-0.000371
0.004747
0.000095
0.073422
0.019557
0.001203
0.003801
0.005539
0.005761
0.004474
-0.000977
-0.002383
-0.010000
0.006815
0.008524
0.010606
0.014068
0.015040
0.000156
0.000801
0.000242
-0.002498
0.009857
0.008470
0.007065
0.004329
0.007340
0.005391
0.005719
0.004572
0.005815
0.000996
0.001020
0.005425
0.003597
0.005253
0.009623
0.012987
0.017955
0.023933
0.010601
0.006553
0.001548
0.001354
0.001427
0.000824
0.000471
0.000581
0.000553
0.000698
0.001063
0.003072
0.002285
0.002603
0.000675
0.000127
-0.001529
-0.002038
-0.000501
-0.000041
0.000560
0.001106
-0.004619
-0.000261
0.001225
-0.001669
0.006583
0.009542
0.006360
0.007966
0.008369
0.009899
0.011718
-0.001002
-0.003580
-0.003413
-0.001319
-0.001221
0.002133
0.002155
0.003749
0.003738
0.005452
0.006113
0.011936
0.008141
0.009945
0.007230
0.007926
0.010143
0.011775
0.013617
0.016309
0.015999
0.018932
0.024268
0.026330
0.022662
0.024992
0.023502
0.022239
0.028610
0.021387
0.024836
0.023135
0.025928
0.020388
0.021000
0.019696
0.015102
0.014990
0.016715
0.016460
0.017241
0.009832
0.013958
0.013579
0.012842
0.011506
0.013865
0.014364
0.012676
0.011800
0.012881
0.013273
0.014140
0.012088
0.012196
0.016029
0.016186
0.007764
-0.001002
-0.003299
-0.002809
-0.000968
-0.000051
0.000812
0.000750
0.001062
-0.000114
-0.000855
-0.000049
-0.002784
-0.002403
0.002315
0.001854
0.002452
0.096777
-0.001205
-0.003377
-0.000420
-0.000625
-0.002262
-0.000430
0.000390
-0.001017
-0.004019
-0.009130
-0.008775
0.002584
-0.004644
-0.007441
-0.006031
-0.004311
-0.004995
-0.001572
-0.000932
-0.000156
-0.000399
0.001831
-0.001416
-0.000597
0.002165
0.000755
0.003122
0.004822
0.025017
0.027178
0.046557
0.004097
-0.003228
-0.001476
-0.004085
-0.001227
0.000872
-0.001801
-0.009217
-0.023654
-0.046296
-0.048306
-0.007068
-0.001962
-0.022657
-0.006139
-0.001473
-0.004341
-0.004975
-0.003409
0.000186
0.003435
0.005299
0.006636
0.005609
0.004183
0.009751
0.007727
0.003968
0.001159
-0.000085
-0.001243
-0.002619
-0.007533
-0.004276
-0.002947
-0.002924
-0.003523
-0.001587
-0.006223
-0.014212
-0.000325
-0.016863
0.003731
0.005057
0.009042
0.015036
0.020492
0.015897
0.012252
0.003452
0.001472
-0.001266
-0.001130
0.028700
0.014474
0.005320
0.006085
0.015277
0.014607
0.010966
0.006046
0.010733
0.034098
0.007721
0.025130
0.014002
0.018062
0.015845
0.015752
0.011054
0.007340
0.005062
0.002346
0.001605
0.002029
0.001396
0.001653
0.001513
0.002159
0.004224
0.001470
0.000638
0.000572
-0.000199
-0.001775
-0.000208
0.001774
0.000266
0.000453
0.000962
0.003093
-0.006627
0.022577
0.023460
0.010813
0.007603
0.006164
0.002880
-0.001508
-0.006035
-0.005579
-0.005227
-0.014941
-0.014645
-0.004758
-0.008023
-0.009636
-0.011263
-0.000271
-0.006570
-0.015686
0.004059
0.014211
0.043768
0.008836
0.014198
0.010651
0.010831
0.004944
0.002912
0.004870
0.005308
0.007591
0.014450
0.007788
0.002874
-0.006602
-0.005208
-0.004972
-0.011286
0.000990
0.004802
0.008667
0.011568
0.003682
0.006586
0.008805
0.009208
0.006988
0.006065
0.004851
0.008833
0.008562
0.010291
0.011220
0.013553
0.011612
0.011728
0.018378
0.014544
0.016059
0.014866
0.014415
0.021034
0.019563
0.021962
0.021792
0.019155
0.027023
0.022369
0.021918
0.021435
0.023039
0.021387
0.023020
0.024061
0.017319
0.013181
0.012687
0.017456
0.015439
0.023955
0.013523
0.012171
0.017869
0.015063
0.009361
0.011262
0.010606
0.011656
0.011574
0.010084
0.011157
-0.007980
-0.005820
-0.001448
-0.000921
0.000428
0.001419
-0.000275
0.003143
0.024107
0.001762
0.004545
0.001771
0.004354
0.008131
0.020827
0.028203
0.002448
0.001043
-0.000951
-0.000320
-0.001069
-0.002533
-0.001046
-0.028275
-0.048627
-0.056902
-0.084603
-0.006350
-0.005910
0.000304
-0.017860
-0.001836
-0.004607
-0.007056
-0.004098
0.000310
0.004450
0.004807
0.008519
0.011268
0.021961
0.039529
0.011504
0.023930
0.002322
0.003379
0.041080
0.043303
0.030535
0.038145
0.020011
0.038021
0.048964
0.042964
0.020550
0.031971
0.019618
0.014075
0.026916
0.043753
0.011273
0.065219
0.136827
0.047331
0.039758
0.059066
0.043424
0.037920
0.044897
0.045587
0.046186
0.043966
0.041543
0.026638
0.047663
0.070876
0.028168
0.028882
0.030557
0.022807
0.017933
0.015560
0.010688
0.008989
0.003097
0.002758
0.004677
0.002146
0.001731
0.002338
0.003222
0.003531
0.000274
0.000466
0.002472
-0.000659
-0.001064
0.002482
0.002354
0.002610
0.003503
0.001311
0.001639
0.001928
0.001026
0.016031
0.004305
0.010606
0.007343
-0.002258
-0.007559
0.001298
-0.004070
-0.002470
0.000687
0.007080
0.009541
0.010232
0.008555
0.007708
0.003844
0.002541
0.004229
0.006560
0.007479
0.008847
0.011480
0.015264
0.012362
0.012612
0.016402
0.011847
0.016330
0.013086
0.010580
0.019113
0.017349
0.017035
0.020029
0.022417
0.025815
0.019340
0.021911
0.022563
0.018753
0.020025
0.021404
0.022092
0.023896
0.025697
0.028511
0.024214
0.016175
0.017590
0.024919
0.015135
0.016500
0.010736
0.011342
0.020417
0.013641
0.007843
0.009695
0.011266
0.010024
0.008349
0.006643
0.006554
0.011659
0.018296
0.032627
0.025852
0.006481
0.001362
0.001170
0.000987
0.000335
-0.007359
0.000411
-0.003864
-0.006460
-0.010832
0.001613
-0.002236
-0.009434
-0.011369
0.002797
0.019200
0.014112
0.010083
0.029692
0.026320
0.014637
0.012003
0.005476
0.005425
0.000810
-0.000359
0.000594
0.003427
0.002299
0.013799
0.013759
0.016903
0.017612
0.012822
0.015176
0.016149
0.018447
0.031876
0.032169
0.026100
0.015537
0.011706
-0.000596
0.000404
-0.000791
-0.000981
-0.000527
-0.003539
-0.021678
-0.018193
-0.051963
-0.084043
-0.049109
-0.033945
-0.004918
-0.011750
0.002195
-0.016998
-0.005395
-0.009522
-0.006249
-0.003402
0.004395
0.007332
0.009332
0.008904
0.007604
-0.001150
-0.021354
-0.006289
0.001948
-0.023466
0.000094
0.004221
0.004947
0.010478
0.010945
0.009500
0.009622
0.007522
0.009291
0.006885
-0.000868
0.000083
0.005129
0.003936
0.007221
0.009931
0.009285
0.011972
0.016137
0.021497
0.015967
0.016805
0.009761
0.017807
0.019787
0.017956
0.007366
-0.057231
-0.030261
-0.007112
-0.033117
-0.037689
-0.028627
-0.001656
-0.015695
-0.008720
0.005448
0.004708
0.004754
0.005751
0.008966
0.006967
0.003806
0.002373
0.002421
0.001532
0.009820
0.005485
0.005399
0.002263
0.003639
0.003486
-0.002455
-0.008988
-0.009298
0.003497
-0.002968
-0.003579
-0.009072
0.002456
0.004397
0.019140
0.012901
0.013291
0.029637
0.033610
0.039461
0.031605
0.013902
0.017702
0.023852
0.026728
0.018679
0.017853
0.016713
0.032790
0.051877
0.077128
0.072917
0.037425
0.058653
0.040511
0.048085
0.054783
0.049062
0.040206
0.057420
0.041460
0.041404
0.050612
0.058049
0.040060
0.024850
0.029422
0.028400
0.016886
0.014829
0.009968
0.005783
0.007339
0.012922
0.013949
0.012832
0.013791
0.018900
0.017048
0.022304
0.017006
0.017805
0.017023
0.022188
0.020546
0.026124
0.026077
0.021293
0.012843
0.017631
0.016437
0.012308
0.012201
0.008015
0.010688
0.016332
0.008581
0.007040
0.010871
0.002302
0.006182
0.006973
0.014396
0.054640
0.029923
0.005256
0.001166
0.002152
0.005479
0.009466
0.009345
0.009335
0.012388
0.011474
0.010171
0.004775
0.004816
0.002372
0.002811
0.004010
0.004928
0.008452
0.007776
0.006624
-0.001846
0.006045
0.002143
-0.001781
-0.001652
0.006165
0.014682
0.005833
0.004777
0.011331
0.012403
0.018405
0.025611
0.040528
0.042089
0.043182
0.039861
0.003204
0.005312
0.009871
0.019449
0.018966
0.019918
0.025636
0.023520
0.019651
0.021693
0.030160
0.034129
0.020081
0.016770
0.012905
0.007866
-0.016123
-0.068442
-0.067181
-0.002931
-0.001351
-0.004184
-0.000376
-0.037762
-0.005049
-0.010944
-0.003262
-0.002835
0.001593
0.004610
0.001120
0.008247
0.009705
0.009487
0.007392
0.002570
0.004279
0.000115
-0.000083
0.004932
0.006834
0.009517
0.012138
0.015409
0.013897
0.013361
0.016804
0.014392
0.023681
0.017480
0.015015
0.010290
0.015117
0.018263
0.039344
0.023961
0.020557
0.014204
0.012432
0.003338
0.003865
-0.002752
0.014913
0.017638
-0.003076
-0.001727
-0.003424
-0.003466
-0.006981
-0.012267
-0.013151
-0.048722
-0.056745
0.015932
0.021729
0.018047
0.020067
0.017054
0.017588
0.020453
0.015041
0.014465
0.013685
0.017231
0.019624
0.017000
0.021125
0.023170
0.026755
0.020065
0.024080
0.018248
0.021030
0.012183
0.007608
0.002249
0.002325
0.008110
0.015482
0.010259
0.007691
0.010372
0.013529
0.023144
0.050749
0.105136
0.066246
0.032430
0.033064
0.012939
0.007007
0.013782
0.006610
0.012219
0.011829
0.015342
0.016245
0.009812
0.010160
0.006288
0.006275
0.026795
0.022234
0.025197
0.014101
0.015579
0.010132
0.006342
0.000778
-0.003531
-0.001509
0.001411
-0.000540
-0.000998
-0.004112
-0.004932
-0.013536
-0.011037
-0.027767
-0.030019
-0.030063
-0.030900
-0.033836
-0.018355
0.070496
0.057032
0.045799
0.055018
0.055869
0.044114
0.055744
0.060934
0.061149
0.044585
0.061725
0.055693
0.063816
0.042118
0.062859
0.054029
0.043237
0.034986
0.032407
0.021563
0.011931
0.017235
0.015107
0.014429
0.013901
0.011310
0.010867
0.004802
0.000439
-0.000488
0.004348
0.016338
0.012030
0.007145
0.012866
0.029667
0.019104
0.017673
0.018976
0.022275
0.004965
0.004300
0.000894
0.003040
0.004698
0.011485
0.012039
0.013475
0.020537
0.021442
0.018572
0.020391
0.015438
0.023893
0.030638
0.035257
0.026521
0.020801
0.015479
0.013229
0.016463
0.018369
0.019707
0.018427
0.015322
0.015463
0.017596
0.016382
0.004882
0.004100
0.000469
0.001068
0.003627
0.009925
0.021271
0.019884
0.021212
0.017699
0.014979
0.008057
0.005333
0.000400
-0.000709
0.007371
0.008322
0.004298
0.005266
0.017213
0.018823
0.017938
0.021770
0.019853
0.027230
0.030477
0.026088
0.024067
0.016477
0.014618
0.004154
0.004508
0.003877
0.003941
0.017308
0.027071
0.037510
0.039719
0.040709
0.041802
0.042535
0.034276
0.010646
0.013172
0.019896
0.021472
0.027038
0.026225
0.031891
0.037278
-0.000988
-0.001061
-0.002048
-0.005799
-0.027793
-0.017743
-0.001034
0.059368
0.046983
0.041653
0.027858
0.024256
0.011854
-0.021821
-0.015613
-0.000065
0.002359
0.025735
0.044449
0.059974
0.077680
0.045788
0.059490
0.028236
0.015982
0.013166
0.014967
0.013046
0.009453
0.009867
0.013112
0.017653
0.017881
0.022059
0.018762
0.014388
0.013241
0.018593
0.021828
0.016600
0.019692
0.024586
0.031751
0.052926
0.026851
0.044919
0.038269
0.065344
0.054760
0.057084
0.048227
0.037083
0.057583
0.066115
0.064601
0.043114
0.072655
-0.001540
0.006381
0.024632
0.032682
0.043525
0.038527
0.042504
0.018810
0.030784
0.030775
0.020906
0.020449
0.020645
0.021117
0.017174
0.016163
0.022070
0.014278
0.016911
0.018968
0.015299
0.017750
0.035349
0.028391
0.053632
0.045290
0.032277
0.043305
0.027474
0.027573
0.032154
0.021495
0.016708
0.019225
0.020442
0.016324
0.011881
0.027302
0.024906
0.023524
0.015542
0.017090
0.016157
0.017340
0.019422
0.017782
0.026922
0.019010
0.033277
0.019042
0.033007
0.028196
0.029299
0.021917
0.019142
0.008513
0.001985
-0.002920
0.013585
0.048575
0.067792
0.045304
0.051682
0.043266
0.046936
0.052609
0.054641
0.067350
0.057730
0.056441
0.053547
0.068160
0.071806
0.045837
0.040431
0.059941
0.033632
0.046817
0.049110
0.041332
0.049688
0.046310
0.056887
0.058386
0.061616
0.053084
0.076382
0.058001
0.049319
0.052255
0.055014
0.021329
0.038661
0.043506
0.042689
0.042735
0.040007
0.036447
0.021656
0.027830
0.045532
0.065836
0.073038
0.068260
0.044513
0.026483
0.020967
0.018300
0.009191
0.010609
0.010935
0.015061
0.012419
0.012302
0.015804
0.019170
0.027080
0.023139
0.028898
0.025386
0.023944
0.033190
0.023732
0.029484
0.035229
0.026199
0.040259
0.029406
0.026552
0.024390
0.021093
0.056580
0.048470
0.040252
0.002953
0.003115
0.002974
0.004947
0.020905
0.019429
0.021624
0.016693
0.022738
0.019287
0.016709
0.016872
0.016433
0.019348
0.019426
0.020667
0.016684
0.024061
0.004627
0.005022
0.007548
0.016098
0.013258
0.023348
0.018159
0.040470
0.036070
0.039493
0.042706
0.043390
0.039424
0.023117
0.017823
0.015880
0.016453
0.017507
0.014814
0.020629
0.024273
0.037510
0.053471
0.058592
0.072138
0.061222
0.051289
0.029233
0.027633
0.033001
0.013815
0.013034
0.011882
0.010406
0.013175
0.011257
0.013066
0.013939
0.013867
0.026331
0.031116
0.036272
0.033200
0.031097
0.027012
0.026853
0.032874
0.026103
0.027919
0.031078
0.028025
0.031587
0.030058
0.023980
0.020903
0.016446
0.009070
0.066962
0.043797
0.031813
0.035937
0.031361
0.037865
0.043711
0.037398
0.029200
0.023720
0.019913
0.014831
0.055908
0.013274
0.010829
0.006234
0.015762
0.016803
0.027432
0.008557
0.014658
0.028287
0.045325
0.037253
0.044578
0.042457
0.039997
0.031010
0.022750
0.015059
0.015513
0.021651
0.026458
0.032433
0.022718
0.037398
0.041338
0.044744
0.045142
0.056718
0.037852
0.044051
0.035718
0.035416
0.030895
0.029393
0.022811
0.021841
0.022216
0.019721
0.019101
0.019390
0.019294
0.022161
0.035176
0.040060
0.040723
0.038649
0.028119
0.054849
0.066347
0.055806
0.042132
0.032867
0.032221
0.018936
0.016323
0.013766
0.013322
0.013763
0.012575
0.017938
0.016174
0.017359
0.026568
0.032351
0.041773
0.047891
0.022804
0.014777
0.018537
0.021376
0.032398
0.034576
0.031421
0.044880
0.038895
0.048199
0.039964
0.030765
0.031859
0.064435
0.019187
0.021994
0.024821
0.023651
0.021974
0.030097
0.039153
0.039257
0.030568
0.023817
0.022133
0.034746
0.046089
0.050549
0.029128
0.048314
0.051377
0.043890
0.044453
0.024147
0.029470
0.033093
0.028454
0.029640
0.032370
0.019015
0.024796
0.020325
0.023078
0.024963
0.024451
0.024186
0.019974
0.017426
0.020673
0.042486
0.043207
0.018472
0.020321
0.017906
0.020292
0.034110
0.034094
0.034288
0.012136
0.046083
0.033643
0.047048
0.051166
0.045360
0.042764
0.038217
0.049726
0.046042
0.066354
0.053989
0.060247
0.051554
0.045936
0.022281
0.020480
0.016195
0.015234
0.021162
0.043674
0.039825
0.043964
0.043478
0.032740
0.057441
0.027421
0.029235
0.044777
0.051528
0.040838
0.052139
0.040778
0.041466
0.035066
0.043525
0.038269
0.041954
0.046782
0.052232
0.060175
0.068378
0.022206
0.019620
0.026342
0.027127
0.041972
0.036106
0.038691
0.040345
0.058780
0.047535
0.040594
0.028435
0.025734
0.031620
0.030706
0.042167
0.046393
0.048891
0.032103
0.026429
0.024235
0.053262
0.019070
0.022478
0.023502
0.019701
0.016571
0.022504
0.031365
0.030865
0.035567
0.040352
0.047197
0.033830
0.034486
0.036708
0.024770
0.052038
0.028625
0.024716
0.021093
0.029276
0.021235
0.034090
0.024315
0.024624
0.022833
0.025062
0.028913
0.021632
0.022668
0.025018
0.026738
0.033272
0.025096
0.040565
0.042295
0.036313
0.035824
0.031822
0.029192
0.026373
0.019015
0.019613
0.029807
0.019447
0.028869
0.030036
0.030995
0.035444
0.037601
0.036735
0.012171
0.026494
0.063408
0.053763
0.051871
0.062062
0.067096
0.065521
0.007630
0.012312
0.013010
0.013248
-0.047345
-0.035916
-0.061972
0.008414
0.004353
-0.007644
0.000890
0.050464
0.049626
0.075249
-0.012601
-0.009021
-0.005755
-0.007300
-0.001157
-0.000263
0.060048
0.062032
0.060518
0.062034
0.021298
0.020022
0.012933
0.030845
0.024663
0.023674
0.027896
0.024046
0.034741
0.019840
0.019743
0.027099
0.038973
0.037121
0.029703
0.038432
0.040824
0.039864
0.041186
0.030070
0.042291
0.013722
0.021191
0.022236
0.029746
0.022919
0.002353
0.017671
0.010258
0.007538
0.009541
0.001469
0.001695
0.002686
0.003341
0.001979
-0.000876
0.002433
0.002711
0.001384
0.002928
0.002096
0.002120
-0.000043
0.001331
0.000621
0.000495
-0.001693
0.000573
0.003050
0.002626
0.001938
0.000945
-0.000316
0.002443
0.005514
0.018854
0.005733
0.002185
0.000737
-0.000229
-0.018245
0.016527
0.020359
0.014149
0.013416
0.010711
0.007261
0.005279
0.005466
0.004495
0.001883
0.000378
0.001680
0.001494
0.001999
0.002183
0.004544
0.003274
0.006275
0.008730
0.004070
-0.001966
0.000216
0.002356
-0.000344
-0.000200
0.000329
0.002157
-0.000394
0.000145
0.000308
0.001048
0.001114
-0.000055
-0.001381
-0.002547
0.000362
0.000230
0.000708
0.001358
0.000199
0.000113
0.000046
-0.000141
-0.000236
-0.002481
-0.001594
0.003439
0.001686
0.006792
0.004596
0.001506
0.003220
-0.000963
0.000335
0.000426
-0.000272
-0.000941
-0.000377
-0.000741
-0.000127
0.002214
0.002309
0.000365
0.000005
0.001434
0.000759
0.000836
0.001674
0.002401
0.005611
0.001753
0.006213
0.021669
0.005517
0.026860
0.006721
0.028650
0.006916
0.030991
0.026768
0.033030
0.047893
0.019793
0.052413
0.013928
0.044403
0.016593
0.038733
0.010571
0.039231
0.015436
0.024657
0.006631
0.025697
0.004443
0.028460
0.005186
0.029591
0.006947
0.027473
0.007796
0.032531
0.016456
0.035412
0.015488
0.039027
0.013591
0.042775
0.017886
0.041778
0.012029
0.044924
0.009776
0.035181
0.006329
0.036263
0.009737
0.033803
-0.000754
-0.006302
-0.002506
-0.001391
-0.000338
-0.002254
-0.002233
-0.001859
-0.003277
-0.004138
-0.004093
-0.003939
-0.000879
0.001319
0.048033
0.017366
0.016959
0.008191
0.004771
0.003284
0.000936
0.001744
0.004545
0.005857
0.012091
0.006459
0.002431
0.000277
0.003107
-0.000461
0.000348
-0.000279
0.000150
0.002256
0.000346
-0.000087
-0.000031
0.004090
0.021353
0.037549
0.000835
-0.005095
-0.023874
-0.002813
-0.024813
0.008328
0.001009
0.001046
-0.000909
-0.000943
0.006609
0.005823
0.004309
0.002952
0.002480
0.000960
0.001324
0.000476
0.001038
0.000860
0.000086
0.000130
-0.000099
0.000041
-0.000600
-0.000113
0.000905
0.005772
0.005817
0.003797
0.004281
0.005551
0.005006
-0.000596
0.000140
-0.000407
-0.000432
-0.000080
0.000355
0.001935
0.000526
0.000222
0.001251
0.001738
0.003675
0.003203
0.002842
0.003071
0.004265
0.001646
-0.000033
0.000692
0.060231
0.013693
-0.002057
-0.035005
0.005504
0.010263
0.012630
0.023506
0.022557
0.028705
0.030637
0.023393
0.031533
0.021951
0.037136
0.027982
0.036906
0.029107
0.037366
0.032339
0.033843
0.021605
0.017448
0.020688
0.014200
0.013525
0.012852
0.011683
0.012908
0.012703
0.014672
0.017619
0.020714
0.018725
0.021439
0.044927
0.024122
0.026829
0.026811
0.028816
0.032939
0.031066
0.027781
0.026277
0.038235
0.042029
0.056425
0.026239
0.030919
0.018971
0.018135
0.013418
0.012211
0.011173
0.010261
0.007068
0.012293
0.010899
0.002713
0.002455
0.002866
0.002550
0.003965
0.007531
0.017679
0.020174
0.022169
0.019325
0.000790
0.001921
0.001089
0.001262
0.000625
0.000220
-0.000681
-0.003941
-0.004291
-0.003973
-0.003409
0.000956
0.000223
0.001474
0.002865
0.013580
-0.000328
0.003428
0.007569
0.019558
0.014349
0.018530
0.057328
0.033756
0.025565
0.029722
0.003261
-0.000317
-0.030788
-0.040105
-0.057704
-0.071602
-0.010901
0.014439
0.011554
0.008332
0.004867
0.005605
0.007086
0.024729
-0.000247
0.000049
0.000123
0.015017
0.017390
0.015163
0.009652
0.000482
0.003235
0.002101
0.000782
0.000327
-0.000015
0.001038
0.003612
0.006129
0.007573
0.008128
0.004124
0.003638
0.000340
0.000264
-0.000007
-0.000138
0.001393
0.002789
0.001910
0.003830
0.003189
0.004578
0.010296
0.009976
0.004776
0.006203
0.008978
0.010613
0.020602
0.012792
0.017239
0.013772
0.010781
0.015725
0.011445
0.011279
0.010282
0.007914
0.007217
0.085380
0.047086
0.046974
0.027861
0.010249
0.006799
0.004506
0.006792
0.015522
0.006704
0.010790
0.014692
0.011367
0.016214
0.018693
0.015390
0.016082
0.015042
0.017244
0.009761
0.020938
0.030705
0.022484
0.021913
0.021123
0.032212
0.024118
0.019086
0.026941
0.037258
0.035583
0.016366
0.022538
0.033539
0.039540
0.036466
0.039121
0.037910
0.037564
0.025686
0.037817
0.038338
0.045769
0.045979
0.027457
0.025360
0.020211
0.019400
0.017460
0.013141
0.011317
0.009989
0.007809
0.008387
0.008199
0.011412
0.014767
0.017072
0.025114
0.025752
0.023061
0.030951
0.036057
0.045275
0.041575
0.036824
0.030452
0.045216
0.038421
0.031964
0.030926
0.023943
0.022478
0.016043
0.016654
0.019906
0.009721
0.015182
0.024765
0.022466
0.043153
0.039038
0.033982
0.023348
0.018182
0.018127
0.005153
-0.012246
0.000197
-0.023844
-0.075039
-0.077111
-0.039364
-0.007566
0.018306
0.013584
0.008330
0.024305
0.009718
0.009548
0.012178
0.022001
0.031611
0.013639
0.038489
0.071207
0.011465
0.027703
0.023418
0.025917
0.014843
0.008795
0.002575
0.001069
0.001721
0.001472
0.000483
0.000970
0.004421
0.007521
0.007813
0.008577
0.003107
0.003867
0.001223
0.001148
0.001428
0.002937
0.005425
0.012004
0.023318
0.022059
0.032695
0.007165
0.007889
0.012061
0.011323
0.017854
0.020636
0.024537
0.025591
0.022526
0.025856
0.023385
0.022652
0.021222
0.020418
0.016331
0.013712
0.010913
0.018489
0.018116
0.022758
0.016512
0.020160
0.023533
0.023974
0.041320
0.023903
0.031505
0.034649
0.025461
0.037657
0.030656
0.029856
0.060193
0.034702
0.057874
0.057662
0.022326
0.023522
0.017671
0.015747
0.020528
0.016483
0.011095
0.041492
0.047058
0.028226
0.030624
0.039593
0.034707
0.034505
0.031864
0.029223
0.032023
0.034160
0.039963
0.034063
0.026153
0.035376
0.023480
0.015428
0.024216
0.014710
0.016607
0.010297
0.005817
0.003630
0.002913
0.003431
0.007195
0.011697
0.019652
0.019523
0.028160
0.037595
0.039814
0.028115
0.041910
0.039208
0.045579
0.045710
0.029333
0.034107
0.034889
0.023297
0.022181
0.021187
0.023642
0.016751
0.031427
0.033413
0.046116
0.048973
0.045717
0.024551
0.020491
0.020730
0.017957
0.005329
0.001995
-0.003978
-0.022045
-0.054737
-0.084540
-0.042936
-0.023265
0.000230
0.010763
0.016586
0.006432
0.030754
0.023685
0.015334
0.024563
0.013797
-0.005390
-0.042904
-0.044849
-0.079384
-0.056570
-0.002312
0.010776
0.035125
0.005566
0.037726
0.014791
0.030649
0.030314
0.018447
0.020117
0.024481
0.027120
0.033778
0.016247
0.037481
0.037607
0.052111
0.034629
0.039521
0.031435
0.021713
0.019238
0.005697
0.002272
0.002449
0.001969
0.001848
0.002588
0.007222
0.004932
0.008044
0.005348
0.004340
0.003393
0.001610
0.002327
0.007225
0.009909
0.018376
0.033800
0.028220
0.036139
0.035846
0.029478
0.018491
0.015134
0.010638
0.010359
0.011800
0.015499
0.021355
0.023422
0.030078
0.025489
0.042906
0.034070
0.032494
0.031801
0.029087
0.026454
0.025375
0.019898
0.027515
0.025444
0.029869
0.025273
0.028025
0.040077
0.033972
0.040544
0.029092
0.040066
0.042309
0.053852
0.043649
0.053731
0.054187
0.055324
0.069746
0.048582
0.053306
0.043162
0.033513
0.027324
0.036601
0.029603
0.025193
0.019446
0.036733
0.049561
0.045917
0.036120
0.038694
0.039184
0.036275
0.037641
0.039711
0.024579
0.035425
0.025602
0.025209
0.025311
0.015458
0.021038
0.014130
0.009411
0.004021
-0.000819
-0.001201
0.002758
0.003990
0.013429
0.018844
0.022951
0.022917
0.028705
0.037360
0.046699
0.042758
0.037124
0.056716
0.049667
0.045384
0.043930
0.036354
0.030886
0.036895
0.029870
0.025856
0.027498
0.006217
0.003669
0.003927
0.007258
0.008773
0.007662
0.007526
0.005234
0.003852
0.006939
0.008123
0.006823
0.009090
0.033751
0.034677
0.051980
0.050533
0.051138
0.046298
0.044592
0.035178
0.019763
0.016593
0.012307
0.010869
0.017418
0.016894
0.029549
0.024988
-0.001752
-0.016509
-0.048031
-0.042598
-0.029894
-0.002453
-0.007741
0.010476
0.022046
0.028688
0.021213
0.031228
0.035549
0.024540
0.029971
0.024679
0.032587
0.031634
0.026969
0.041877
0.035373
0.040770
0.041999
0.042441
0.007203
0.013185
0.022721
0.026553
0.035448
0.038438
0.027898
0.047630
0.037593
0.048500
0.030271
0.024097
0.039981
0.027565
0.034066
0.039378
0.038902
0.039832
0.034283
0.045484
0.050024
0.045474
0.052963
0.054468
0.059793
0.061394
0.064202
0.072088
0.065190
0.048435
0.047594
0.036668
0.025350
0.020298
0.010302
0.044732
0.037044
0.039840
0.036253
0.045131
0.046110
0.044815
0.038292
0.039887
0.036194
0.029986
0.030779
0.023620
0.021586
0.018615
0.015422
0.008811
-0.002679
-0.001390
-0.001783
-0.001800
0.005713
0.016328
0.020046
0.018978
0.029218
0.029704
0.029306
0.047719
0.042096
0.055907
0.049981
0.043360
0.055461
0.043259
0.029309
0.056286
0.040032
0.029806
0.051624
0.035965
0.037374
0.041448
0.042289
0.037317
0.049333
0.048124
0.046770
0.048854
0.046423
0.051452
0.049562
0.057690
0.054053
0.064348
0.054988
0.048484
0.007713
0.013670
0.011197
0.006962
0.006529
0.013261
0.022905
0.029374
0.051941
0.055061
0.057714
0.060115
0.059373
0.056899
0.058581
0.050015
0.032336
0.026522
0.019494
0.015546
0.018197
0.019157
0.048666
0.026065
0.037556
0.036180
0.058853
0.050708
0.041557
0.023821
0.022624
0.025598
0.023184
0.018448
0.010481
0.005908
-0.000692
-0.002465
-0.012968
-0.019087
-0.014889
-0.000633
-0.024436
0.009475
0.013683
0.026907
0.039238
0.033970
0.038717
0.025155
0.035434
0.025946
0.034972
0.041557
0.037382
0.050306
0.041919
0.044578
0.047288
0.032745
0.011216
0.040193
0.055316
0.045248
0.045684
0.037077
0.047084
0.038593
0.036630
0.044370
0.031324
0.033994
0.024028
0.025948
0.022727
0.019966
0.016605
0.014091
-0.004586
-0.003608
-0.006295
-0.005101
0.014037
0.014138
0.021125
0.025360
0.025794
0.034871
0.042212
0.033846
0.049721
0.045962
0.049648
0.052318
0.054602
0.046179
0.019292
0.029843
0.038700
0.041955
0.038937
0.055546
0.047525
0.012466
0.017883
0.019710
0.034292
0.040017
0.049190
0.055457
0.059765
0.060081
0.059997
0.061948
0.060236
0.065606
0.055445
0.047888
0.036245
0.027081
0.018736
0.019389
0.018536
0.022421
0.038020
0.028089
0.038085
0.040420
0.053077
0.047380
0.028667
0.021947
0.018385
0.012005
0.004551
0.004414
0.001518
-0.011011
-0.027997
-0.025947
-0.022952
0.015413
-0.000873
0.001291
-0.005643
-0.029576
-0.019804
-0.023078
-0.021558
0.002013
0.022553
0.020011
0.034181
0.042680
0.027020
0.038334
0.033995
0.040834
0.033477
0.045128
0.043387
0.040484
0.057545
0.043624
0.051586
0.055591
0.045835
0.048377
0.029740
0.028191
0.030637
0.025109
0.016466
0.017759
0.011927
-0.010117
-0.004850
-0.005619
-0.008981
0.011000
0.021692
0.023856
0.020153
0.026857
0.026651
0.035591
0.053101
0.053964
0.042946
0.045758
0.053231
0.048798
0.043412
0.040256
0.043221
0.053355
0.050488
0.044926
0.061251
0.049199
0.049661
0.045665
0.051999
0.052899
0.039253
0.039273
0.049552
0.050454
0.053569
0.046776
0.042337
0.045487
0.036031
0.055797
0.058042
0.055789
0.057524
0.058090
0.059583
0.061596
0.059961
0.057862
0.057694
0.047822
0.037165
0.029245
0.026112
0.026681
0.023975
0.021826
0.025653
0.034968
0.038285
0.035472
0.026028
0.043178
0.040841
0.047881
0.051367
0.047013
0.057998
0.041041
0.048468
0.035642
0.028979
0.023790
0.030928
0.012843
0.006452
-0.006403
-0.012954
-0.010636
-0.007412
0.006355
0.011218
0.027994
0.028427
0.021171
0.026904
0.034038
0.038143
0.043189
0.061297
0.054453
0.052858
0.049402
0.057389
0.041375
0.046959
0.064975
0.043854
0.048815
0.039013
0.053863
0.042130
0.046600
0.048939
0.054156
0.054857
0.057959
0.055235
0.053224
0.060764
0.048088
0.061998
0.046001
0.053042
0.043853
0.033992
0.027594
0.026957
0.026312
0.028254
0.027472
0.044291
0.056862
0.047071
0.047514
0.060127
0.038109
0.046703
0.034469
0.035334
0.032906
0.026476
0.024511
0.022247
0.014171
0.010844
0.007933
0.005891
-0.000742
-0.013005
-0.018062
-0.017675
-0.017740
-0.011804
-0.003737
0.035184
0.012369
0.026216
0.036655
0.041546
0.042896
0.043087
0.052097
0.037832
0.038254
0.040162
0.029996
0.038712
0.041951
0.048981
0.042836
0.050974
0.042846
0.037800
0.028843
0.027950
0.016667
0.014333
0.000252
-0.011803
-0.011658
-0.012167
-0.008171
0.000203
0.015369
0.012894
0.022839
0.025660
0.029887
0.030951
0.035508
0.047838
0.034588
0.051737
0.051653
0.046018
0.038644
0.044793
0.032871
0.035579
0.046852
0.047785
0.052770
0.038772
0.040227
0.032730
0.034332
0.024621
0.018044
0.009214
0.008896
-0.029191
-0.024657
-0.021754
-0.020493
-0.004102
0.011129
0.027054
0.018474
0.016852
0.025052
0.029817
0.034400
0.038306
0.063547
0.043842
0.048670
0.045839
0.051074
0.033654
0.031054
0.034193
0.045248
0.056363
0.030337
0.027578
0.022623
0.021742
0.013253
0.012960
0.012093
0.011880
-0.016890
-0.017176
0.043455
0.049556
0.043835
0.051897
0.056704
0.043692
0.056863
0.041124
0.037327
0.037582
0.029605
-0.011299
-0.011317
0.015275
0.018876
-0.004791
0.010273
0.037292
0.011869
0.022803
0.033090
0.025566
0.045312
0.045929
-0.005074
0.048984
0.039490
0.022714
0.034063
0.023743
0.009029
0.022379
0.016487
0.039302
0.044231
0.048331
0.039308
0.046794
0.046580
0.018722
0.021708
0.031573
0.039134
0.037246
0.049308
0.053464
0.032859
0.035162
0.037661
0.052605
0.046792
0.063109
0.050174
0.031829
0.041726
0.025962
0.033035
0.020996
0.014127
0.017461
0.011187
0.036848
0.025261
0.033336
0.050212
0.035779
0.040406
0.028788
0.000385
0.000540
0.000952
0.000609
0.019984
0.017256
0.011225
0.012157
-0.000255
0.002800
0.043690
0.040644
0.030586
0.014361
0.023908
0.036425
0.038703
0.039238
0.030552
0.008651
0.040631
0.044687
0.050019
0.053079
0.033720
0.051181
0.045109
0.008920
0.006291
SCALARS S22_SP1(MPa) float 1
LOOKUP_TABLE default
-0.008421
-0.002789
-0.010788
-0.001489
0.003063
-0.001208
-0.001969
-0.001963
-0.000372
0.001720
-0.000254
0.000144
-0.000534
-0.000332
0.000018
-0.000047
-0.000458
-0.001183
-0.000293
-0.000741
-0.001185
-0.000743
-0.000404
0.000004
-0.000689
-0.001124
-0.001059
-0.001254
-0.000612
-0.000858
0.000589
0.002251
0.000272
-0.000301
-0.000283
0.000129
0.000706
0.003279
0.003053
0.008274
0.003481
0.001984
0.005198
0.006195
0.001935
0.000692
-0.000562
0.003474
0.003896
0.004065
0.000516
0.003860
-0.001282
-0.000166
0.000085
-0.001178
-0.001349
0.000354
0.000962
-0.002854
0.000403
0.001650
-0.002562
0.001555
0.002156
-0.002725
-0.003378
0.006573
-0.001530
-0.000275
-0.000771
-0.000561
-0.000635
-0.000341
0.000457
0.000002
-0.000686
-0.000222
0.001061
0.004302
0.004693
0.002649
-0.000356
-0.001095
0.000123
-0.003314
-0.009021
-0.002671
-0.000645
-0.000091
0.000035
-0.001322
-0.000805
-0.001352
-0.000472
-0.003851
-0.000040
-0.000724
-0.000675
0.000466
-0.001076
-0.001208
-0.000122
0.001142
0.000661
-0.001558
0.001690
0.001601
0.003571
0.004080
0.004205
0.003194
0.000905
0.001386
0.001011
0.003372
0.003916
0.002174
0.002864
0.000629
0.000743
-0.000374
0.000069
0.021917
0.010230
0.006605
0.010646
0.006985
0.001967
0.000297
-0.000358
-0.001135
0.000131
0.000389
-0.000125
0.000461
-0.000188
0.003086
0.003945
0.002857
0.001042
-0.000633
-0.001416
-0.000238
-0.000462
-0.000772
-0.000896
-0.000412
-0.001028
0.000167
0.000370
0.000779
-0.000148
0.003317
0.000882
-0.029369
-0.013483
-0.014552
-0.011316
-0.000265
-0.007303
-0.003559
0.000044
0.000126
0.000990
0.002966
0.002369
0.001879
-0.000520
-0.000951
-0.000940
-0.001666
-0.000942
-0.000273
-0.000056
0.000699
0.002775
0.004862
0.000307
-0.000526
-0.000859
-0.001443
-0.003041
-0.006260
-0.006823
-0.002377
-0.000886
0.001060
-0.000180
-0.000795
-0.000125
0.000618
0.003308
0.001920
0.001679
0.004136
0.004197
0.002141
0.002171
0.003247
0.000587
0.003960
0.007465
0.001573
0.004174
0.000039
-0.000139
-0.003848
-0.003553
0.000425
-0.001064
-0.001276
0.000601
0.000490
0.010434
0.000588
0.002637
-0.000760
-0.000194
-0.008976
-0.005219
0.000148
-0.001066
-0.001464
-0.000272
0.002032
-0.000744
-0.000439
0.000302
0.000231
0.004808
0.008964
0.001800
0.001052
0.004744
-0.000700
-0.013062
-0.002727
-0.010589
-0.001749
-0.001932
-0.000651
-0.000243
0.000205
-0.000271
-0.000553
-0.001532
-0.004226
-0.001511
-0.003306
0.000214
0.002545
-0.002701
-0.001226
-0.001701
-0.000351
0.001107
0.022267
0.006378
0.003623
0.005279
0.006775
0.005476
0.007238
0.009028
0.004183
0.003082
0.003523
0.003793
0.002179
0.001394
0.006114
0.000475
0.000816
0.000571
0.001174
0.050696
0.017874
0.010766
0.011135
0.005338
0.001521
0.000997
0.000579
-0.000960
-0.000406
0.001431
0.001059
0.001351
0.000655
0.011520
0.042275
0.010592
0.001698
0.000557
-0.000709
-0.000469
0.000043
-0.000547
-0.000505
-0.000817
-0.002156
-0.000165
0.000338
0.000151
0.002164
0.019607
0.004214
-0.017783
-0.035984
-0.002172
-0.002716
-0.001127
0.001078
0.000373
0.000583
0.001417
0.003158
0.004304
0.005858
-0.000027
-0.000260
-0.000347
-0.000681
-0.000419
0.000247
0.000596
0.001283
0.004517
0.007145
0.000455
0.000687
0.001579
0.000798
0.000072
-0.001607
-0.003395
0.001118
-0.002582
0.000929
0.000695
0.000453
0.002923
0.002896
0.022456
0.001097
0.001646
0.009934
0.005094
0.008439
0.007333
-0.000618
-0.002753
0.000804
-0.000455
-0.000314
0.000812
0.000620
-0.002980
0.000291
0.004985
0.002441
0.002405
0.016310
-0.000624
0.000170
0.003739
0.001828
0.007807
-0.000186
0.002707
0.009139
0.003994
0.000825
0.001363
0.003903
0.000766
0.002108
0.005098
0.007377
0.003046
0.000883
-0.000128
-0.003355
-0.016761
-0.014615
-0.003753
-0.000388
0.000854
0.001729
0.001026
-0.000937
-0.001332
-0.002264
-0.000248
0.000272
0.000202
-0.000246
-0.002229
-0.001659
-0.001114
0.000891
0.008840
0.017657
0.012765
0.007971
0.008208
0.011837
0.012228
0.013051
0.010592
0.005921
0.004140
0.004378
0.003110
0.003572
0.001832
0.013835
0.035198
0.061209
0.076683
0.009708
0.026282
0.011758
0.004690
0.004839
0.002462
0.001900
0.000952
-0.000024
0.000545
0.002282
0.011381
0.072968
0.057600
0.158321
0.037051
0.018076
0.005427
0.002231
0.000368
0.000301
0.000843
0.000234
0.000470
0.000537
-0.000075
0.032768
0.019946
0.027067
0.067689
0.024318
0.012102
0.001352
-0.007582
-0.001401
-0.000034
-0.000094
-0.000078
0.000194
0.000556
0.000511
0.000202
0.000721
0.000392
-0.000722
-0.000504
-0.000447
-0.000058
0.001323
0.000679
0.002352
0.001707
0.000352
-0.000640
-0.001059
-0.002868
0.006143
0.005432
0.001597
-0.011596
-0.017720
0.001282
0.040369
0.004858
0.002799
0.028937
0.048309
0.027495
0.018101
0.021938
0.015689
0.023513
0.029252
0.031068
0.041307
0.044695
0.050608
0.054285
0.052386
0.052425
0.041240
0.036318
0.009582
0.033980
0.016438
0.040818
0.029111
0.049848
0.022640
0.037460
0.037931
0.025226
0.044239
0.024244
0.039803
0.035648
0.017046
0.032126
0.035661
0.019704
0.030642
0.037341
0.013068
0.023122
0.038940
0.020948
0.024458
0.024794
0.017542
0.019756
0.014293
0.018851
0.021009
0.010821
0.016388
0.020657
0.010519
0.022435
0.023009
0.013300
0.026631
0.043124
0.024806
0.033626
0.027814
0.036499
0.041190
0.034853
0.035542
0.058126
0.042307
0.058310
0.044109
0.078552
0.051971
0.061360
0.068315
0.065934
0.058995
0.072012
0.055218
0.067346
0.067002
0.053657
0.047894
0.044324
0.078811
0.027801
0.046053
0.056856
0.026367
0.032221
0.024882
0.035185
0.034683
0.027104
0.030562
0.020370
0.034293
0.039560
0.031383
0.052266
0.047018
0.041417
0.056114
0.064024
0.056881
0.069360
0.075235
0.050389
0.075276
0.067323
0.056700
0.079674
0.064995
0.057543
0.058318
0.062105
0.053587
0.062370
0.055674
0.039437
0.049962
0.046873
0.032441
0.039003
0.058439
0.026394
0.030879
0.040088
0.034535
0.017877
0.036275
0.014501
0.019723
0.019178
0.020209
0.016310
0.018440
0.026751
0.003722
-0.000317
0.006947
0.016167
0.007353
0.004907
0.007364
0.010023
0.011210
0.008181
0.012117
0.005242
-0.000014
0.006529
0.003052
0.004320
0.004339
0.001329
0.000029
-0.001674
-0.006230
-0.004813
-0.000126
-0.004418
-0.015311
-0.000674
0.002638
-0.003170
-0.000457
0.000097
0.000624
0.000417
0.000583
0.000655
0.000615
0.000163
0.000248
0.000051
0.000545
-0.000546
-0.001753
0.033550
0.025396
0.034914
0.044390
0.052999
0.059951
0.074142
0.080147
0.083891
0.086083
0.089229
0.083996
0.077100
0.072487
0.067529
0.044923
0.001720
0.009316
0.005823
0.002401
0.001103
0.000892
0.003104
0.037569
0.026138
0.037505
0.004784
0.000738
0.010410
-0.014384
-0.016219
0.026186
0.042861
0.000803
0.000474
0.033985
0.039963
0.068227
0.044459
0.048391
0.042788
0.060876
0.032810
0.051034
0.035887
0.041184
0.045872
0.028193
0.029555
0.047885
0.040711
0.025823
0.037104
0.029777
0.032540
0.030528
0.038344
0.023490
0.035971
0.021062
0.012899
0.029345
0.029055
0.025674
0.024813
0.029675
0.017100
0.028309
0.020876
0.029992
0.035992
0.029256
0.034285
0.046224
0.044985
0.031940
0.037111
0.054194
0.031172
0.040339
0.030779
0.070416
0.065699
0.064678
0.065060
0.066338
0.065629
0.068567
0.065405
0.053561
0.080617
0.066312
0.059593
0.068937
0.063778
0.052210
0.058015
0.054021
0.064125
0.050131
0.073581
0.030743
0.046410
0.032006
0.040849
0.038104
0.046784
0.045497
0.055529
0.036021
0.047763
0.043753
0.048579
0.051174
0.059678
0.062157
0.069730
0.075247
0.060146
0.078911
0.070686
0.056614
0.074270
0.060831
0.079221
0.057455
0.057080
0.075601
0.045181
0.056691
0.069315
0.053171
0.067705
0.040989
0.038841
0.049734
0.051396
0.041000
0.046046
0.039307
0.039086
0.048121
0.031056
0.021747
0.052855
0.034725
0.022002
0.038703
0.027427
0.042632
0.018069
-0.001073
0.002827
0.000813
0.009857
0.008466
0.018952
0.015392
0.025409
0.017938
0.016476
0.023655
0.009961
0.005441
0.000737
-0.000638
-0.000712
-0.002150
-0.002015
0.006380
-0.009595
-0.009600
-0.018354
0.001803
0.016431
0.012741
0.008330
0.004945
0.005923
0.017389
0.033312
0.037046
0.043144
0.036446
0.135081
0.064950
-0.012873
-0.009988
-0.005679
-0.000985
-0.001859
-0.001457
-0.000160
-0.000405
0.000062
0.000695
0.001988
0.006347
0.004587
0.003327
0.069989
0.052030
0.054841
0.067641
0.057594
0.072260
0.052125
0.052934
0.050523
0.049533
0.047918
0.050005
0.039150
0.039831
0.055479
0.041678
0.035596
0.032614
0.041089
0.039471
0.040200
0.044421
0.031664
0.054599
0.025006
0.017279
0.028549
0.045367
0.040982
0.030907
0.032585
0.047201
0.027564
0.062960
0.032651
0.028791
0.044030
0.034080
0.045091
0.067306
0.030839
0.052900
0.033537
0.043525
0.043790
0.059809
0.053398
0.071263
0.054945
0.073392
0.052541
0.068307
0.077039
0.063827
0.065723
0.076481
0.057407
0.074977
0.058266
0.068716
0.062160
0.050155
0.058939
0.069130
0.060546
0.038618
0.058187
0.044846
0.062947
0.048861
0.057439
0.077058
0.062225
0.071348
0.028050
0.055498
0.073744
0.038755
0.048192
0.052156
0.048345
0.103829
0.058475
0.068212
0.063973
0.085124
0.070566
0.066266
0.061521
0.075855
0.074673
0.061016
0.068761
0.061649
0.048118
0.069517
0.098562
0.043219
0.047854
0.069603
0.033057
0.064213
0.058733
0.041948
0.059163
0.050508
0.044035
0.066701
0.034624
0.059992
0.045218
0.039748
0.025702
0.043276
0.039997
0.012511
-0.000420
0.000950
0.006116
0.000095
0.003667
0.010479
0.016494
0.013946
0.027475
0.020320
0.012900
0.013083
0.005053
0.000301
-0.007151
0.003340
-0.000326
-0.000315
-0.008482
-0.016341
0.074539
0.072179
0.075531
0.074913
0.082784
0.084319
0.087283
0.093765
0.101316
0.096717
0.089047
0.093684
0.086639
0.018138
0.006930
0.000592
0.008400
0.010510
0.003330
-0.001147
-0.001214
-0.005448
-0.000698
-0.007191
-0.006358
-0.000639
0.003519
-0.002371
0.009675
0.003670
0.002520
0.006217
0.012060
0.022100
0.123341
0.005223
0.000010
0.000315
-0.000378
0.000300
0.001454
0.002888
0.005764
0.014672
0.045102
0.003131
0.002942
0.002996
0.003384
0.003008
0.000222
0.003078
0.005957
0.043875
0.006095
0.005646
0.008084
0.013323
0.029505
0.058396
0.103954
0.128008
0.001204
0.001951
0.008230
0.020913
0.013502
0.004390
0.001663
0.000172
0.000906
-0.002461
-0.000371
0.001522
0.032559
0.010237
0.010988
0.002634
0.000919
0.004940
-0.000019
0.002912
0.000031
0.001797
0.017740
0.011774
0.021834
0.011370
0.009883
0.002928
0.003944
0.001115
-0.001011
0.024923
0.065825
0.052277
0.053645
0.032212
0.027272
0.007994
0.003060
0.000581
-0.003111
0.014582
0.072899
0.007029
0.088391
0.003906
-0.008038
-0.011051
-0.000550
0.000463
0.001094
0.002235
0.001547
0.003017
0.002018
0.005875
0.027821
0.053315
0.055399
0.020455
0.001971
-0.003146
-0.006267
-0.001699
-0.001480
-0.001521
0.000910
-0.000069
-0.001719
0.000921
0.001166
0.015247
0.015235
0.013176
0.010462
0.010672
0.014087
0.016962
0.017293
0.013454
0.009974
0.010915
0.008450
0.004988
0.007966
0.015510
0.011680
0.044251
0.066020
0.048219
0.037521
0.020918
0.023263
0.012022
0.007703
0.003464
0.002276
0.002185
0.001055
0.000776
0.005001
0.014478
0.051935
0.060539
0.102884
0.074924
0.026492
0.010320
0.009542
0.001407
0.001330
0.000837
0.002162
0.001333
0.002478
0.002424
0.018688
0.029080
0.022011
0.045269
0.011993
0.001023
0.001743
0.001997
0.010569
0.006983
0.040470
-0.020486
0.003372
-0.001765
-0.003659
-0.007879
-0.007254
-0.004200
0.001614
0.000334
-0.001412
-0.000515
0.000358
0.005845
0.012554
0.007140
0.017398
0.028292
0.052201
0.050779
0.066844
0.025287
0.012862
0.004942
0.001976
0.005524
0.006773
0.014855
0.025557
0.024829
0.009108
0.007938
0.005803
0.009080
0.006609
0.009130
0.025381
0.047046
0.021274
0.020628
0.040738
0.068907
0.120408
0.106136
0.120587
0.144609
0.049435
0.040809
0.027986
0.037619
0.047564
0.049796
0.004561
0.002218
0.003861
0.017697
0.013889
0.030622
0.023536
0.011032
0.013980
0.001607
0.044865
0.040143
0.052364
0.011550
0.072196
0.024501
0.021997
0.017302
0.014015
0.008109
0.008743
0.007942
0.041121
0.045708
0.034112
0.064843
0.026199
0.058423
0.016052
0.014224
0.007489
0.003427
0.002189
0.018294
0.065141
0.015846
0.037867
0.053086
0.090827
0.031715
0.017485
-0.001839
-0.000389
0.001444
0.001893
0.004052
0.005947
0.004684
0.004129
0.005595
0.005542
0.012285
0.030560
0.052692
0.041464
0.056717
0.081802
0.234613
0.008922
0.001384
0.001169
-0.000455
0.001442
0.000015
0.012235
0.007618
0.003793
-0.013026
-0.008962
-0.000713
-0.000300
0.000274
-0.000856
-0.000530
-0.000269
-0.000058
0.000611
0.002559
0.006928
0.008957
0.032390
0.032099
0.044387
0.024396
0.020753
0.011068
0.028309
0.038869
0.044404
0.048976
0.052779
0.056043
0.078799
0.115198
0.070828
0.069830
0.075447
0.077697
0.067870
0.048961
0.051681
0.045491
0.058955
0.048864
0.058148
0.051247
0.040773
0.060141
0.040162
0.045573
0.041586
0.033468
0.050299
0.034263
0.044508
0.057911
0.042405
0.019200
0.055813
0.048607
0.047191
0.046009
0.057817
0.042350
0.057290
0.051469
0.053107
0.036073
0.037582
0.054294
0.059264
0.041246
0.059682
0.065484
0.029840
0.047451
0.046877
0.064265
0.060287
0.063385
0.055962
0.070332
0.073907
0.064059
0.063430
0.085770
0.069239
0.054585
0.077537
0.063999
0.078567
0.051375
0.065312
0.072700
0.067046
0.063954
0.061382
0.055079
0.060479
0.038753
0.076025
0.042990
0.100325
0.049841
0.061761
0.073450
0.048505
0.033767
0.062211
0.064789
0.044404
0.048427
0.052892
0.067042
0.080568
0.070628
0.052273
0.099420
0.061466
0.059183
0.086688
0.088876
0.057067
0.091508
0.067711
0.058733
0.069891
0.067176
0.091608
0.057115
0.092679
0.050139
0.090830
0.082116
0.046345
0.041914
0.071502
0.061885
0.045936
0.041065
0.052592
0.077713
0.047023
0.036474
0.057463
0.052241
0.043536
0.029459
0.006211
0.001051
0.004469
0.006633
0.012877
0.016562
0.120337
0.111476
0.117523
0.101942
0.094436
0.092528
0.089768
0.095013
0.095466
0.103612
0.085185
0.002796
0.007756
0.012782
0.010709
0.014094
0.011194
0.016923
0.023098
0.024264
0.023304
0.023078
0.016109
0.014469
0.011669
0.014875
0.019081
0.028713
0.043007
0.054796
0.059514
0.042252
0.019969
0.013564
0.011209
0.007641
0.010290
0.006974
0.005841
0.007423
0.023433
0.037932
0.074561
0.078673
0.076790
0.051883
0.028880
0.015771
0.022161
0.052818
0.026769
0.016209
-0.008268
-0.000079
0.000625
0.009362
0.001748
0.000019
-0.000307
-0.000734
0.000436
0.003194
0.009083
0.012277
0.036452
0.044248
0.037622
0.042140
0.039286
0.040163
0.038727
0.056395
0.068743
0.068626
0.066838
0.075671
0.082102
0.072261
-0.000185
0.000051
0.001754
0.018225
0.039671
-0.002145
-0.001056
0.006577
0.017468
0.012833
0.012153
0.019663
0.026815
0.031040
0.032448
0.032811
0.032239
0.027466
0.026530
0.019575
0.019615
0.051635
0.043064
0.056476
0.054100
0.037824
0.025897
0.023192
0.015790
0.024039
0.021020
0.017499
0.013763
0.041926
0.032446
0.048506
0.079653
0.060605
0.067761
0.056686
0.043914
0.031448
0.030350
0.011229
0.010289
0.017497
0.015452
0.043044
0.059880
0.013260
0.027360
0.034066
0.030342
0.039291
0.031055
0.042636
0.013112
0.003671
0.004795
0.006728
-0.000074
-0.002466
-0.000846
-0.019245
-0.003312
0.001785
0.078106
0.082970
0.088883
0.090878
0.095547
0.105048
0.101322
0.106621
0.086315
0.092196
0.092165
0.080344
0.081634
0.062740
0.049986
0.035988
0.045553
0.063702
0.040954
0.067830
0.034740
0.059657
0.042834
0.029956
0.048474
0.059203
0.029005
0.066541
0.058493
0.047976
0.045653
0.043462
0.051738
0.047946
0.053505
0.047757
0.039332
0.048255
0.070851
0.038438
0.062759
0.036056
0.054897
0.051510
0.037780
0.046509
0.065688
0.032801
0.053867
0.053559
0.063805
0.053864
0.068370
0.052426
0.077483
0.052010
0.072753
0.071314
0.073002
0.063294
0.068083
0.078727
0.067426
0.055828
0.070299
0.077559
0.054350
0.062672
0.058501
0.069544
0.055388
0.042762
0.043308
0.069674
0.100124
0.067041
0.065695
0.059545
0.056822
0.065262
0.032390
0.049590
0.053257
0.061112
0.053769
0.043348
0.071008
0.091543
0.063305
0.066935
0.077739
0.077625
0.059884
0.089854
0.053007
0.087558
0.064495
0.071879
0.063671
0.055919
0.109748
0.081615
0.078041
0.068811
0.047852
0.063507
0.047418
0.045097
0.084228
0.047896
0.056308
0.052509
0.051190
0.059163
0.042557
0.061689
0.060659
0.057125
0.065552
0.054853
0.033767
0.011495
0.002040
0.000241
0.001678
0.076308
-0.013636
0.004416
0.039515
0.147604
0.172373
0.031423
0.042095
0.051072
0.078700
0.119261
0.111317
0.096162
0.107750
0.094587
0.037320
0.038348
0.043938
0.052367
0.040256
0.066273
0.022704
0.027242
0.023818
0.033535
0.041999
0.027675
0.029437
0.025549
0.028065
0.035133
0.045515
0.055295
0.044634
0.064910
0.040460
0.028263
0.019431
0.010638
0.009207
0.029184
0.033961
0.041147
0.036123
0.031531
0.045778
0.037956
0.062048
0.009562
0.101517
0.035392
0.036821
0.019045
0.022482
0.028710
0.027456
0.038938
0.042702
0.044255
0.043594
0.023402
0.018657
0.006993
0.005919
0.005999
0.019423
0.046165
0.027275
0.020833
0.028951
0.033597
0.063905
0.060773
0.030831
0.020702
0.004056
0.001382
0.001753
0.002889
0.005535
0.008428
0.012216
0.012461
0.016095
0.013377
0.010079
0.011434
0.031348
0.048230
0.040768
0.024152
0.021091
0.010348
0.000298
0.006976
0.014018
0.018566
0.048110
0.049607
0.054673
0.047187
0.046993
0.025905
0.043561
0.028973
0.030881
0.027326
0.033582
0.031240
0.033037
0.040333
0.035280
0.016184
0.021564
0.052418
0.032665
0.047747
0.057632
0.071809
0.065507
0.068983
0.048230
0.056163
0.044345
0.057764
0.052314
0.046086
0.032767
0.023197
0.014365
0.024598
0.033873
0.041275
0.045131
0.046486
0.039332
0.042471
0.026913
0.010236
0.016347
-0.000997
-0.003154
-0.001052
-0.002938
0.003968
-0.001542
0.000550
-0.006904
0.008003
0.012071
0.007143
0.008463
0.005797
0.008249
0.042364
0.014139
0.013994
0.000737
0.059610
0.006408
-0.017025
-0.015883
-0.012699
-0.002938
-0.005301
0.000686
-0.000621
0.003750
0.003478
0.012168
0.028949
0.040449
0.034346
0.037206
0.056859
0.068868
0.057035
0.026129
0.017139
0.010076
0.005781
0.010533
0.020116
0.020395
0.030558
0.027368
0.015573
0.019282
0.013844
0.018740
0.033572
0.082661
0.081139
0.092369
0.092963
0.087785
0.089574
0.085461
0.089840
0.081511
0.098408
0.101284
0.100452
0.106305
0.111931
0.097291
0.107128
0.097891
0.087613
0.082334
0.058423
0.043140
0.046768
0.033078
0.043494
0.063156
0.033300
0.027013
0.054614
0.029853
0.037979
0.043197
0.058558
0.053307
0.068467
0.057685
0.058926
0.048717
0.048374
0.046913
0.047722
0.068160
0.023721
0.038016
0.042222
0.046448
0.056619
0.061102
0.042422
0.043885
0.047153
0.035035
0.044081
0.055303
0.043978
0.049869
0.050258
0.061691
0.054873
0.072747
0.065169
0.066653
0.060982
0.071756
0.081451
0.079520
0.053391
0.075840
0.072598
0.066176
0.056339
0.065463
0.067050
0.066921
0.067683
0.070502
0.059237
0.054136
0.058813
0.058056
0.044891
0.062178
0.087515
0.067430
0.072910
0.067228
0.051309
0.050376
0.036248
0.043985
0.051219
0.054220
0.068615
0.095061
0.078599
0.063601
0.073073
0.078899
0.071916
0.090319
0.047473
0.068173
0.076875
0.077884
0.058148
0.073389
0.079340
0.077584
0.062317
0.073922
0.052987
0.045001
0.053033
0.057339
0.072729
0.054747
0.057937
0.037824
0.062488
0.053742
0.054836
0.053401
0.055517
0.068787
0.069746
0.056656
0.043918
0.027435
0.002230
0.002067
0.001871
-0.010057
0.045372
0.067112
-0.001090
-0.008704
-0.016733
-0.013507
-0.000978
0.062311
0.052026
0.048108
0.062695
0.039053
0.058610
0.043449
0.034845
0.019307
0.039299
0.050419
0.048680
0.055761
0.058135
0.045081
0.048268
0.040397
0.047654
0.048840
0.061734
0.036298
0.028797
0.030407
0.038879
0.056927
0.065105
0.085586
0.064457
0.059182
0.058843
0.046351
0.047395
0.063467
0.044510
0.064102
0.041816
0.046764
0.038596
0.027066
0.028749
0.037216
0.039403
0.041913
0.043725
0.045984
0.037972
0.027779
0.031592
0.008490
0.010664
-0.004820
0.000743
-0.003980
0.001634
0.052460
0.041625
0.039909
0.060202
0.072669
0.057071
0.025784
0.017630
0.019269
0.024971
0.025697
0.030088
0.041175
0.052954
0.025611
0.021963
0.021765
0.021624
0.047330
0.070877
0.011753
0.017974
0.038912
0.062713
0.065604
0.071769
0.072797
0.053327
0.072196
0.070893
0.092572
0.101524
0.099507
0.108060
0.109415
0.103285
0.100933
0.094165
0.098014
0.026450
0.015640
0.010297
0.012855
0.018906
0.039567
0.025470
0.018127
0.019293
0.022376
0.021009
0.049437
0.068004
0.053963
0.022213
0.009635
0.005307
0.003153
0.001976
0.006356
0.006943
0.011530
0.017800
0.019856
0.025158
0.024773
0.030668
0.023811
0.029420
0.094027
0.097611
0.100181
0.096970
0.099510
0.102671
0.081772
0.078800
0.065688
0.060778
0.032520
0.044997
0.042434
0.027870
0.030352
0.023017
0.016515
0.033046
0.033766
0.034948
0.052113
0.066219
0.063415
0.074178
0.059491
0.053834
0.047851
0.044651
0.050579
0.030141
0.014836
0.017000
0.025636
0.041900
0.070690
0.049643
0.052167
0.042974
0.046058
0.048309
0.044043
0.032769
0.053911
0.072135
0.062581
0.043816
0.063226
0.072794
0.066409
0.065257
0.061006
0.070008
0.087279
0.086003
0.053446
0.062976
0.092043
0.056845
0.068188
0.053753
0.087286
0.059101
0.065693
0.076207
0.060747
0.059730
0.055081
0.062878
0.055949
0.056504
0.065154
0.058748
0.071993
0.061844
0.066905
0.053184
0.047242
0.039346
0.045129
0.046087
0.068080
0.059538
0.064909
0.045676
0.088626
0.088482
0.090503
0.067504
0.078907
0.074975
0.071993
0.069319
0.067762
0.056228
0.061179
0.096058
0.064035
0.090883
0.067617
0.054410
0.080882
0.058765
0.052265
0.052565
0.057129
0.056847
0.059869
0.063085
0.045125
0.056708
0.036790
0.057411
0.045236
0.063096
0.065699
0.080924
0.058272
0.065414
0.040210
0.026751
0.010555
0.000289
-0.006108
0.057664
0.066165
0.049361
0.053168
0.067233
0.058386
0.065403
0.077094
0.062508
0.075136
0.061598
0.046769
0.053942
0.038093
0.043589
0.039100
0.046745
0.085186
0.066789
0.068742
0.065482
0.046818
0.045220
0.056773
0.058327
0.063855
0.045065
0.050653
0.035690
0.056256
0.030554
0.031715
0.033247
0.038284
0.046680
0.051282
0.048584
0.049919
0.047282
0.033242
0.024082
0.022709
0.008359
0.000249
0.005014
-0.000038
-0.000886
0.000169
0.001275
-0.005673
-0.002335
0.003422
0.001050
0.002282
0.003893
0.004816
0.000538
0.000814
0.000999
0.001187
0.001897
0.006831
0.019609
0.049428
0.103400
0.013448
0.005602
0.010772
0.011198
0.012332
0.024601
0.038712
0.044814
0.044841
0.039402
0.038524
0.030482
0.032313
0.040399
0.031867
0.074103
0.066991
0.027459
0.050411
0.055776
0.032728
0.051596
0.034599
0.025240
0.014277
0.031603
0.029153
0.051473
0.048786
0.046078
0.041910
0.031222
0.119552
0.111402
0.077857
0.055701
0.035665
0.052717
0.081388
0.086096
0.090909
0.123191
0.076701
0.084487
0.086925
0.053618
0.048895
0.040500
0.037123
0.040572
0.020343
0.015978
0.011570
-0.003627
-0.006927
0.000170
0.000788
0.066581
0.045599
0.094833
0.104863
0.107975
0.114895
0.118871
0.116902
0.109166
0.101704
0.102098
0.034748
0.022954
0.021510
0.025871
0.036127
0.029905
0.016227
0.016456
0.022552
0.029394
0.007166
0.044341
0.049337
0.050835
0.038781
0.012471
0.001654
0.006189
0.006342
0.007857
0.034903
0.044056
0.041462
0.043823
0.040319
0.065920
0.051255
0.046407
0.031289
0.075090
0.056829
0.098513
0.097773
0.085822
0.074952
0.071864
0.038068
0.020175
0.018717
0.011185
0.005051
0.028251
0.023916
0.042987
0.052381
0.069289
0.074835
0.061923
0.069585
0.046773
0.046407
0.038202
0.043938
0.008511
0.008040
0.026888
0.021880
0.040093
0.052672
0.060400
0.052390
0.047625
0.051641
0.039550
0.057108
0.038585
0.050111
0.083000
0.051548
0.044725
0.056561
0.081978
0.056722
0.067548
0.074482
0.066713
0.104519
0.068296
0.060322
0.066669
0.088633
0.057983
0.070272
0.077079
0.074132
0.061412
0.074348
0.072412
0.064036
0.055845
0.059451
0.053557
0.039789
0.051403
0.027934
0.056426
0.057855
0.064896
0.062197
0.063963
0.057938
0.037914
0.044646
0.009968
0.096950
0.087648
0.077996
0.070937
0.054796
0.037933
0.037132
0.007045
0.011005
0.005352
0.003989
0.029298
0.025868
0.046755
0.057492
0.072729
0.073461
0.067004
0.071439
0.036037
0.043234
0.024367
0.018287
0.017913
0.020112
0.016805
0.020937
0.041023
0.053967
0.054754
0.050744
0.057227
0.038009
0.053318
0.053334
0.048478
0.055644
0.068316
0.057293
0.045032
0.067926
0.076075
0.057777
0.079337
0.091264
0.078168
0.088840
0.076273
0.057184
0.075614
0.088190
0.060130
0.072546
0.073378
0.072459
0.078522
0.085561
0.057788
0.056297
0.047841
0.045228
0.006226
0.076480
0.026243
0.028632
0.041971
0.054705
0.064335
0.064255
0.056468
0.041628
0.045263
0.046765
0.076268
0.081491
0.124925
0.126015
0.122843
0.093854
0.071338
0.062925
0.061988
0.057900
0.081540
0.100951
0.105772
0.095282
0.092850
0.119947
0.081890
0.085005
0.075544
0.079720
0.061354
0.066217
0.056640
0.055823
0.048476
0.043355
0.046420
0.043033
0.050724
0.047505
0.052193
0.043044
0.041912
0.046959
0.036398
0.003481
0.007325
0.007812
0.005228
0.011836
0.001112
0.002370
0.005079
0.005938
0.014557
0.044027
0.049310
0.035908
0.048511
0.038297
0.036240
0.041977
0.074566
0.065873
0.061742
0.050734
0.030766
0.000658
0.004155
0.002493
0.037461
0.074717
0.082410
0.057719
0.039583
0.046005
0.042670
0.058961
0.077766
0.052329
0.022849
0.026459
0.035141
0.040556
0.060839
0.069775
0.053480
0.039036
0.029463
0.035380
0.034780
0.048902
0.060887
0.042854
0.021080
0.034816
0.007557
0.004677
0.015553
0.027353
0.041861
0.050240
0.062359
0.065728
0.071248
0.060843
0.052056
0.035876
0.024908
0.018902
0.030688
0.004387
0.013506
0.008264
0.017741
0.052991
0.047974
0.057743
0.058143
0.046119
0.036885
0.059200
0.054755
0.039825
0.060602
0.063828
0.051132
0.055944
0.060728
0.082825
0.061419
0.061069
0.086746
0.084456
0.075875
0.083836
0.074578
0.081659
0.082927
0.068994
0.068887
0.070503
0.095823
0.090625
0.069960
0.059069
0.052111
0.043776
0.036818
0.033730
0.014519
0.041260
0.021275
0.033102
0.050790
0.062817
0.072899
0.052441
0.046159
0.043365
0.052607
0.065758
0.046264
0.060105
0.089526
0.089234
0.097887
0.067722
0.087087
0.079210
0.055587
0.068633
0.070853
0.053327
0.065723
0.076354
0.084232
0.090195
0.064190
0.072666
0.057429
0.077545
0.047295
0.052488
0.052973
0.069406
0.047482
0.084919
0.043291
0.039898
0.054558
0.042219
0.056388
0.060683
0.073035
0.077170
0.066219
0.060225
0.043496
0.023644
0.009931
0.061746
0.082540
0.028559
0.032835
0.038624
0.059968
0.072002
0.061455
0.050112
0.041355
0.035776
0.031784
0.028191
0.038457
0.029232
0.022184
0.017664
0.012542
0.032014
0.017391
0.021900
0.029683
0.046211
0.034628
0.017341
0.006713
0.000633
0.011030
0.005970
0.008335
0.013674
0.008416
0.024810
0.039475
0.037826
0.062954
0.041798
0.058352
0.029717
0.038128
0.032657
0.045140
0.024379
0.040581
0.042163
0.034753
0.034918
0.023770
0.051748
0.056693
0.054838
0.051088
0.048281
0.055377
0.038149
0.051955
0.061253
0.069938
0.078611
0.078070
0.099244
0.076285
0.083524
0.073220
0.063097
0.060958
0.066958
0.064852
0.058912
0.081977
0.086785
0.078279
0.074255
0.066798
0.059298
0.074735
0.051425
0.047936
0.063743
0.055336
0.076999
0.049968
0.050326
0.046285
0.040905
0.057055
0.044234
0.058393
0.064138
0.059539
0.079479
0.059538
0.045662
0.029749
0.009291
0.077472
0.101716
0.127113
0.100929
0.076263
0.038570
0.098149
0.060171
0.078128
0.084303
0.093070
0.105985
0.086151
0.107888
0.080971
0.109503
0.088022
0.087580
0.082240
0.067634
0.072898
0.054784
0.057374
0.057885
0.047583
0.039685
0.041587
0.046534
0.044719
0.045231
0.044922
0.050536
0.055242
0.048706
0.056095
0.040813
0.032891
0.033148
0.018217
0.006378
0.008764
0.002847
0.007469
0.010789
0.012673
0.021260
0.034523
0.015264
0.012356
0.011577
0.020069
0.035954
0.040544
0.048203
0.029913
0.044817
0.057438
0.085362
0.071328
0.079287
0.088600
0.102433
0.118652
0.121967
0.122927
0.126567
0.118986
0.104638
0.077471
0.076574
0.053635
0.040974
0.030202
0.035184
0.042195
0.056280
0.087461
0.062916
0.082118
0.069880
0.059367
0.057265
0.082614
0.034789
0.047404
0.042420
0.038546
0.024043
0.036838
0.041202
0.037662
0.036193
0.068381
0.063697
0.046157
0.056080
0.029389
0.026534
0.036046
0.038227
0.026320
0.019439
0.010214
0.009783
0.018039
0.032720
0.035858
0.032172
0.004160
-0.000327
0.001908
0.011966
0.011031
0.012913
0.011395
0.021874
0.021385
0.044136
0.078008
0.060312
0.087661
0.070739
0.067301
0.033412
0.052861
0.036068
0.043182
0.048544
0.041426
0.046913
0.060711
0.059228
0.063410
0.062413
0.052963
0.057529
0.036154
0.038171
0.037460
0.027965
0.001876
0.007655
0.008000
0.018688
0.006710
0.018158
0.027277
0.046029
0.061113
0.045270
0.061178
0.071343
0.069518
0.069914
0.063338
0.069908
0.048808
0.052496
0.070843
0.058438
0.055711
0.062555
0.058459
0.066384
0.069318
0.056321
0.082753
0.069634
0.052864
0.042640
0.050402
0.044070
0.054749
0.044537
0.066418
0.059507
0.067474
0.051175
0.058361
0.044583
0.057921
0.057871
0.049383
0.061714
0.064418
0.048827
0.045007
0.034234
0.047665
0.064478
0.080553
0.036842
0.028504
0.038014
0.044927
0.060102
0.081079
0.065062
0.049736
0.055586
0.057667
0.056572
0.070243
0.033408
0.042659
0.043178
0.032563
0.044819
0.051449
0.054987
0.049315
0.093834
0.072578
0.073100
0.078612
0.085382
0.070207
0.079850
0.040663
0.058350
0.067713
0.074076
0.088630
0.087045
0.084499
0.079719
0.064339
0.068292
0.055591
0.056062
0.068488
0.074016
0.072896
0.068973
0.085918
0.090019
0.062132
0.077688
0.071621
0.060323
0.054909
0.067793
0.045171
0.066310
0.061662
0.058746
0.077638
0.079742
0.055491
0.070107
0.056382
0.054197
0.064126
0.061437
0.061027
0.054351
0.044075
0.074844
0.036526
0.036667
0.066094
0.082958
0.103932
0.097019
0.085457
0.083388
0.077514
0.091967
0.091580
0.116945
0.104950
0.087355
0.062224
0.083280
0.071877
0.084047
0.073966
0.093001
0.090002
0.101989
0.103977
0.107702
0.105686
0.098403
0.100972
0.089723
0.077702
0.070995
0.067713
0.067400
0.055439
0.050322
0.052539
0.063739
0.086435
0.089280
0.071655
0.065317
0.039723
0.044177
0.039542
0.035696
0.029956
0.020119
0.013896
0.007680
0.015282
0.017070
0.031377
0.034539
0.025150
-0.002029
-0.004377
0.001465
0.009106
0.013654
0.020405
0.018438
0.027511
0.042492
0.042889
0.059159
0.087139
0.080110
0.090247
0.085825
0.074750
0.064898
0.060373
0.058674
0.066888
0.076934
0.081964
0.095053
0.081931
0.083529
0.064254
0.074564
0.061163
0.055186
0.077421
0.085111
0.099390
0.063334
0.065627
0.059063
0.089593
0.051169
0.060036
0.060107
0.064782
0.059537
0.051565
0.052848
0.051542
0.047530
0.046144
0.042720
0.050769
0.067184
0.081049
0.071813
0.070858
0.048870
0.031453
0.017034
0.033989
0.039506
0.041025
0.049029
0.049230
0.051365
0.048115
0.051230
0.038142
0.056383
0.073526
0.108580
0.127627
0.127432
0.117686
0.113382
0.104896
0.099430
0.032683
0.017790
0.082827
0.059037
0.068693
0.041358
0.048744
0.068846
0.077995
0.046086
0.049620
0.051614
0.052536
0.054643
0.054626
0.055137
0.050602
0.060270
0.071846
0.098240
0.088802
0.099923
0.093900
0.100968
0.054344
0.057350
0.043319
0.049685
0.039687
0.047429
0.042898
0.075228
0.074013
0.031617
0.041725
0.043072
0.050022
0.089092
0.088158
0.065512
0.075305
0.060851
0.066636
0.056204
0.070587
0.059242
0.044206
0.066667
0.055938
0.052159
0.069190
0.042832
0.038046
0.047017
0.068699
0.089316
0.049934
0.075167
0.057186
0.043016
0.018382
0.018579
0.024538
0.016593
0.018113
0.042392
0.049349
0.055298
0.059725
0.043627
0.057064
0.043583
0.047202
0.050108
0.060152
0.051422
0.071850
0.053867
0.073689
0.069420
0.063054
0.057228
0.104239
0.084982
0.081433
0.076171
0.072219
0.087120
0.104210
0.067289
0.069143
0.070462
0.093836
0.093926
0.082705
0.095740
0.096145
0.102801
0.087781
0.085567
0.063442
0.066707
0.037698
0.047824
0.039442
0.029486
0.030303
0.019783
0.008827
0.008637
0.014308
0.027151
0.031793
0.036474
0.020867
0.015076
0.002349
0.054075
0.016123
0.022309
0.009834
0.049592
0.021976
0.040346
0.070676
0.073766
0.089461
0.106075
0.099873
0.091482
0.081037
0.076098
0.076987
0.072416
0.111652
0.062424
0.060946
0.056755
0.054144
0.052108
0.050648
0.043589
0.077233
0.108539
0.059757
0.161234
0.077491
0.113799
0.114337
0.071247
0.058548
0.020548
0.046464
0.046814
0.052769
0.049697
0.065850
0.064804
0.082239
0.059889
0.064322
0.058514
0.056206
0.060702
0.054321
0.037782
0.033072
0.038231
0.019630
0.015201
0.021646
0.001248
0.026011
0.064392
0.064208
0.057786
0.058365
0.061044
0.060948
0.093012
0.112728
0.093053
0.097771
0.082783
0.081904
0.111935
0.099018
0.096634
0.090980
0.074222
0.072766
0.062005
0.088797
0.086119
0.081184
0.098720
0.093687
0.091303
0.106102
0.100981
0.103542
0.099624
0.101138
0.115053
0.106377
0.085122
0.089957
0.082700
0.067694
0.065726
0.053033
0.064822
0.066606
0.091529
0.089826
0.078293
0.095051
0.066483
0.062631
0.087366
0.061154
0.067176
0.071732
0.057877
0.056147
0.077443
0.095703
0.109826
0.062804
0.055528
0.054440
0.067551
0.080247
0.056759
0.054502
0.084450
0.067402
0.062066
0.053817
0.043499
0.048198
0.050601
0.041059
0.048096
0.059461
0.042519
0.055758
0.039906
0.053214
0.072770
0.064182
0.042047
0.045039
0.051562
0.081059
0.073894
0.049602
0.062457
0.068422
0.081080
0.074854
0.055350
0.039070
0.038373
0.022315
0.013952
0.014687
0.024720
0.025383
0.026024
0.031876
0.055781
0.057870
0.049055
0.043070
0.050612
0.054629
0.068871
0.090172
0.096282
0.082799
0.081328
0.073732
0.066662
0.064839
0.070919
0.074214
0.067598
0.062856
0.078206
0.083584
0.089000
0.099484
0.100647
0.081777
0.091285
0.056023
0.073115
0.074328
0.071668
0.069293
0.099657
0.062469
0.078742
0.090872
0.095474
0.078463
0.090465
0.058164
0.063191
0.062082
0.053815
0.060713
0.058847
0.058716
0.072883
0.045346
0.063983
0.049496
0.055755
0.048891
0.064344
0.053247
0.074760
0.077791
0.070708
0.066275
0.080395
0.062023
0.056870
0.062723
0.077255
0.082430
0.124075
0.066536
0.075010
0.055571
0.067483
0.085038
0.063440
0.081224
0.061460
0.071681
0.064016
0.061356
0.046143
0.043169
0.040732
0.039844
0.086699
0.085762
0.092570
0.112073
0.103751
0.101098
0.097945
0.086740
0.063176
0.056181
0.092979
0.047390
0.034821
0.046924
0.035308
0.033493
0.020040
0.010175
0.005878
0.010462
0.014244
0.030492
0.035575
0.042722
0.020527
0.047382
0.114861
0.036130
0.022206
0.025488
0.038440
0.022362
0.067684
0.002719
0.034042
0.030967
0.036077
0.050426
0.056839
0.065065
0.046488
0.046039
0.052387
0.041882
0.056016
0.051148
0.046042
0.059568
0.050174
0.058958
0.079783
0.061459
0.067553
0.099431
0.086019
0.087737
0.083822
0.070973
0.088724
0.110867
0.078372
0.079275
0.071352
0.106838
0.028419
0.016648
0.031821
0.046047
0.049589
0.059001
0.055231
0.049186
0.051898
0.059655
0.039683
0.054590
0.041041
0.046570
0.059777
0.041597
0.076724
0.046983
0.074957
0.083414
0.072693
0.091845
0.091186
0.082597
0.073638
0.092214
0.110956
0.072858
0.083516
0.080065
0.085023
0.105166
0.084555
0.108407
0.080636
0.091644
0.075144
0.056254
0.037269
0.025859
0.020086
0.018052
0.011058
0.026848
0.027828
0.011898
0.028309
0.052084
0.060197
0.053284
0.058842
0.069383
0.055467
0.054658
0.042984
0.048771
0.046169
0.095243
0.089774
0.084799
0.085198
0.089822
0.076879
0.071032
0.078935
0.066083
0.056670
0.065623
0.093563
0.108628
0.085083
0.080171
0.089578
0.076445
0.065147
0.078818
0.082807
0.080108
0.090796
0.107573
0.087621
0.094486
0.076000
0.130956
0.086621
0.107033
0.107566
0.120886
0.109470
0.092738
0.086819
0.094162
0.092849
0.046329
0.033712
0.068058
0.060762
0.054500
0.050292
0.065739
0.063117
0.082451
0.071397
0.088997
0.051672
0.067503
0.050336
0.066999
0.060978
0.052837
0.060290
0.041424
0.053098
0.064245
0.047594
0.053941
0.064350
0.051983
0.027281
0.026064
0.010355
0.048269
0.082889
0.078473
0.090370
0.094147
0.083875
0.131273
0.102296
0.107400
0.119106
0.101603
0.083595
0.101639
0.067037
0.057985
0.072326
0.052330
0.047901
0.040095
0.045691
0.032370
0.019291
0.015906
0.007336
0.010393
0.003933
0.014772
0.030490
0.038543
0.035547
0.033325
0.043634
0.040740
0.036183
0.026726
0.047123
0.060085
0.037385
0.073074
0.065218
0.091029
0.096953
0.100082
0.107749
0.097393
0.095222
0.097587
0.090221
0.061990
0.088718
0.110440
0.087467
0.114874
0.089951
0.092350
0.096781
0.103072
0.102241
0.098322
0.096475
0.075100
0.062838
0.085288
0.094461
0.054132
0.106642
0.093841
0.102604
0.072878
0.096959
0.101541
0.099355
0.084133
0.087523
0.059011
0.077425
0.053702
0.061383
0.060610
0.070833
0.061025
0.071729
0.049272
0.066042
0.059026
0.077532
0.057468
0.060986
0.046280
0.071630
0.050153
0.064340
0.061853
0.063015
0.071038
0.056261
0.075395
0.079568
0.109833
0.075504
0.068376
0.063828
0.053650
0.081703
0.067742
0.075888
0.055071
0.059155
0.070000
0.054413
0.065780
0.038484
0.035888
0.099863
0.087354
0.084026
0.075975
0.057680
0.037530
0.019392
0.025510
0.019731
0.006315
0.031186
0.011821
0.037391
0.010888
0.037508
0.041187
0.030316
0.048621
0.065853
0.064401
0.059702
0.049635
0.045827
0.048144
0.062209
0.088775
0.096630
0.073285
0.106261
0.093413
0.067022
0.093108
0.068112
0.073747
0.089145
0.099693
0.073651
0.084803
0.089092
0.082688
0.068843
0.078180
0.081792
0.082853
0.064936
0.091068
0.110018
0.085281
0.104306
0.099254
0.096437
0.111864
0.108488
0.102458
0.113050
0.100803
0.114419
0.108793
0.098620
0.087511
0.109013
0.046855
0.054155
0.060571
0.046085
0.042566
0.043058
0.046987
0.047970
0.053965
0.097871
0.099311
0.110075
0.107149
0.111537
0.073356
0.114168
0.085470
0.077586
0.106016
0.088558
0.119500
0.110168
0.140178
0.110525
0.089477
0.108590
0.084247
0.120118
0.056368
0.118298
0.075844
0.069098
0.077130
0.057423
0.070923
0.054547
0.088594
0.057308
0.081779
0.050935
0.055821
0.050496
0.052665
0.080862
0.046974
0.071967
0.047688
0.046794
0.046696
0.055968
0.069755
0.063943
0.059130
0.042507
0.100527
0.067540
0.073934
0.077504
0.078701
0.061668
0.087258
0.055832
0.077939
0.103884
0.104607
0.106008
0.112789
0.106467
0.099000
0.110360
0.126741
0.117510
0.088011
0.084267
0.086051
0.078413
0.052520
0.063659
0.060092
0.052482
0.045875
0.049894
0.022213
0.012583
0.004188
0.015739
0.018224
0.024115
0.036407
0.037331
0.034906
0.025975
0.036708
0.057856
0.042740
0.084802
0.042889
0.053580
0.036830
0.030225
0.049564
0.052184
0.078081
0.066453
0.085355
0.099144
0.114714
0.118152
0.114415
0.119895
0.108499
0.119748
0.110475
0.061943
0.059956
0.052191
0.054775
0.041117
0.068730
0.092380
0.087768
0.087003
0.102961
0.107249
0.072901
0.074473
0.077014
0.065988
0.071862
0.069050
0.060602
0.049221
0.040748
0.071923
0.036584
0.068285
0.071305
0.059827
0.069167
0.099400
0.084873
0.084830
0.094566
0.080865
0.086381
0.107933
0.100578
0.084733
0.087987
0.092687
0.087699
0.053226
0.098935
0.081182
0.076834
0.070008
0.079825
0.098209
0.069719
0.066484
0.081611
0.102962
0.097259
0.104741
0.099216
0.101104
0.112551
0.114397
0.056480
0.064889
0.064432
0.059088
0.082734
0.057910
0.067720
0.077659
0.077947
0.056805
0.067976
0.049718
0.087013
0.047367
0.057510
0.054792
0.050274
0.111449
0.109950
0.122222
0.111977
0.082000
0.006818
0.020687
0.021666
0.041133
0.052677
0.032853
0.049056
0.059714
0.041194
0.045549
0.059238
0.077801
0.099111
0.104626
0.107900
0.140971
0.134908
0.115598
0.123031
0.115285
0.125075
0.118591
0.058833
0.055174
0.039960
0.048391
0.072445
0.065280
0.085011
0.069660
0.078914
0.095754
0.072421
0.102847
0.095076
0.100092
0.112855
0.094631
0.108468
0.099617
0.087004
0.109216
0.090904
0.083933
0.076516
0.061225
0.046513
0.016185
0.017905
0.009077
0.016094
0.032676
0.027023
0.017814
0.056178
0.071612
0.068519
0.074371
0.098850
0.070112
0.073383
0.067891
0.049973
0.066722
0.071791
0.071475
0.067337
0.058157
0.069338
0.085052
0.063514
0.064100
0.077989
0.067769
0.060158
0.059762
0.061170
0.049187
0.053587
0.085376
0.100072
0.090293
0.109214
0.091739
0.105683
0.064960
0.079254
0.091652
0.072834
0.074863
0.074388
0.069548
0.065991
0.070477
0.073661
0.075538
0.074256
0.067701
0.071298
0.055838
0.065413
0.071310
0.077800
0.073283
0.065886
0.056341
0.068270
0.069868
0.085471
0.079473
0.086322
0.086315
0.078605
0.093139
0.065033
0.085844
0.068608
0.058684
0.068113
0.063741
0.064233
0.059936
0.065364
0.062619
0.058151
0.067446
0.054787
0.056630
0.121672
0.103084
0.113362
0.096062
0.120981
0.102971
0.103399
0.105628
0.118580
0.131046
0.100955
0.103713
0.084568
0.092865
0.051227
0.069308
0.076044
0.053651
0.062532
0.057321
0.066897
0.080221
0.124795
0.086660
0.102251
0.095092
0.098690
0.100983
0.108116
0.111941
0.110627
0.106761
0.118407
0.118410
0.125142
0.104566
0.091004
0.075693
0.037756
0.068019
0.063737
0.061811
0.066421
0.087773
0.060579
0.081670
0.085640
0.079431
0.091610
0.119664
0.096193
0.107425
0.085379
0.109706
0.098911
0.105799
0.105335
0.089268
0.086390
0.078957
0.067240
0.042021
0.022340
0.012654
0.016534
0.020209
0.048407
0.032961
0.018371
0.028288
0.024253
0.027452
0.028189
0.040681
0.062598
0.066035
0.061501
0.064053
0.094400
0.099541
0.071904
0.118992
0.076882
0.101755
0.121642
0.142839
0.089087
0.049497
0.048757
0.035981
0.065013
0.062766
0.081933
0.094769
0.099691
0.121012
0.130431
0.141524
0.139102
0.149182
0.128445
0.126077
0.113523
0.041483
0.083071
0.070848
0.078844
0.054524
0.042411
0.042420
0.025940
0.021662
0.009969
0.017648
0.009589
0.014403
0.018482
0.040360
0.038120
0.027794
0.013580
0.093118
0.073918
0.067012
0.068205
0.088211
0.077866
0.092050
0.110859
0.062888
0.083860
0.124526
0.077044
0.118031
0.116118
0.109671
0.135939
0.097994
0.123997
0.100007
0.140995
0.125014
0.119865
0.094738
0.082940
0.062212
0.075305
0.065851
0.065837
0.076281
0.061198
0.054562
0.070679
0.070264
0.069595
0.085804
0.068349
0.092812
0.084811
0.087934
0.077389
0.083449
0.058114
0.066749
0.072527
0.069927
0.072794
0.071323
0.091749
0.058462
0.069820
0.065608
0.053057
0.086277
0.069486
0.083952
0.086045
0.091940
0.084693
0.125300
0.102244
0.089124
0.097613
0.124172
0.113743
0.105069
0.089841
0.096419
0.087735
0.081951
0.065694
0.048881
0.028697
0.009646
0.012797
0.015302
0.038461
0.035929
0.010407
0.036759
0.028986
0.027620
0.022543
0.020093
0.032345
0.044879
0.064162
0.070263
0.069428
0.074251
0.092581
0.139991
0.076603
0.093512
0.114849
0.090866
0.132845
0.108304
0.108986
0.101750
0.120425
0.095853
0.097642
0.119106
0.127903
0.092450
0.130272
0.101630
0.081061
0.089913
0.048544
0.044787
0.078847
0.074502
0.043897
0.065433
0.069451
0.087241
0.086266
0.054736
0.059743
0.089212
0.117234
0.141113
0.136547
0.117771
0.131276
0.149643
0.115929
0.132934
0.045165
0.090237
0.065879
0.078094
0.085330
0.088558
0.092020
0.092951
0.099974
0.138076
0.107626
0.127271
0.123679
0.120679
0.108030
0.098746
0.098111
0.089944
0.079062
0.067157
0.046551
0.025337
0.009956
0.015210
0.032607
0.018318
0.030959
0.004670
0.028968
0.039479
0.022113
0.027465
0.012022
0.013160
0.045653
0.064271
0.074566
0.081044
0.084597
0.082363
0.098846
0.138065
0.105292
0.093794
0.171786
0.094514
0.113683
0.083650
0.073574
0.074110
0.071773
0.067605
0.073163
0.058024
0.066444
0.064657
0.026196
0.019569
0.030344
0.043063
0.030911
0.041835
0.036016
0.031429
0.025449
0.086660
0.069531
0.060342
0.085954
0.074231
0.081506
0.096462
0.074662
0.071950
0.080600
0.083210
0.085389
0.115246
0.091149
0.112288
0.093059
0.122086
0.111112
0.136678
0.129919
0.103875
0.116553
0.104290
0.137108
0.126846
0.142064
0.142074
0.096726
0.112656
0.109547
0.123720
0.101155
0.122361
0.152604
0.127750
0.121791
0.070650
0.113875
0.089026
0.091377
0.130627
0.115608
0.103824
0.078369
0.070433
0.078150
0.066691
0.061343
0.093026
0.062360
0.065881
0.081595
0.098689
0.086602
0.042257
0.072241
0.068742
0.086475
0.008369
0.028813
0.025982
0.036230
0.025810
0.010198
0.011732
0.023944
0.033541
0.044017
0.047401
0.066450
0.068846
0.096471
0.092280
0.082453
0.077335
0.069311
0.088525
0.084844
0.086209
0.128873
0.084936
0.108816
0.107103
0.130437
0.121036
0.124111
0.107174
0.128176
0.099549
0.096427
0.088862
0.077804
0.064231
0.042766
0.023926
0.012492
0.012730
0.039924
0.016404
0.053382
0.023867
0.075168
0.084505
0.123396
0.118383
0.096323
0.160172
0.109439
0.154223
0.109688
0.110926
0.115921
0.123378
0.127614
0.113179
0.101634
0.082735
0.071222
0.064104
0.052577
0.028543
0.027575
0.118833
0.110290
0.101445
0.105515
0.096428
0.085198
0.084444
0.075173
0.100902
0.063520
0.088662
0.063019
0.093164
0.082097
0.098492
0.096404
0.095081
0.116812
0.090082
0.097750
0.126578
0.079037
0.092504
0.109720
0.093082
0.148166
0.111350
0.098599
0.146903
0.152613
0.152995
0.128178
0.140216
0.131810
0.111816
0.134989
0.163721
0.126176
0.100349
0.117388
0.098214
0.102025
0.089314
0.090097
0.111409
0.114118
0.113748
0.107925
0.159059
0.102351
0.106109
0.117546
0.076342
0.080495
0.065772
0.066607
0.070477
0.095747
0.071527
0.099881
0.077504
0.087073
0.108099
0.127685
0.129701
0.149245
0.112880
0.129678
0.126253
0.105877
0.106983
0.095708
0.089262
0.074445
0.054000
0.040222
0.021395
0.013576
0.014083
0.027902
0.020836
0.077654
0.034194
0.058583
0.014492
0.009062
0.014677
0.011014
0.040421
0.059517
0.082688
0.089221
0.097063
0.104313
0.109780
0.137057
0.115948
0.109451
0.138152
0.010675
0.018858
0.021936
0.034077
0.043376
0.055988
0.070736
0.085960
0.098551
0.112611
0.103600
0.017386
0.016982
0.026835
0.043536
0.049193
0.072540
0.074714
0.091582
0.101399
0.120560
0.129802
0.122053
0.122642
0.127115
0.116685
0.109223
0.108926
0.096890
0.084728
0.080795
0.087438
0.089344
0.097413
0.075006
0.087538
0.146601
0.174996
0.151143
0.128332
0.139984
0.143485
0.142160
0.093083
0.111574
0.093653
0.095384
0.074607
0.078834
0.088858
0.084448
0.021298
0.036627
0.123937
0.112658
0.108334
0.107301
0.100080
0.091693
0.045544
0.104928
0.066100
0.074688
0.085253
0.094917
0.109513
0.121911
0.122450
0.148334
0.111648
0.149625
0.107390
0.156605
0.130664
0.135461
0.137833
0.132698
0.167442
0.114383
0.122240
0.084405
0.132054
0.143248
0.098088
0.106481
0.125674
0.129939
0.127456
0.109097
0.098362
0.080889
0.105623
0.108992
0.122915
0.120139
0.112035
0.106632
0.119506
0.132241
0.123267
0.139440
0.125838
0.002173
0.005338
0.002151
0.002091
0.000674
0.001205
0.059072
0.235699
0.024363
0.038213
0.009886
0.028342
0.035903
0.019395
0.024188
0.034139
0.023403
0.026238
0.008966
0.005594
0.023304
0.034026
0.059204
0.032207
0.045524
0.038454
0.080769
0.082791
0.027441
0.018038
0.013605
0.067346
0.065453
0.108375
0.061088
0.064504
0.085627
0.077972
0.067242
0.078496
0.083697
0.095679
0.081542
0.087263
0.077262
0.081468
0.054021
0.079812
0.038254
0.062499
0.080180
0.058232
0.042982
0.058225
0.022872
0.019310
0.027811
0.105749
0.087465
0.071150
0.056690
0.055542
0.088062
0.047132
0.067930
0.030477
0.025509
0.033490
0.075309
0.086005
0.115511
0.119816
0.131939
0.143695
0.126021
0.099374
0.111149
0.099972
0.118935
0.147559
0.133298
0.120438
0.121430
0.131952
0.087453
0.070535
0.077140
0.020340
0.037260
0.038587
0.015254
0.012244
0.023054
0.018365
0.015199
0.038422
0.038262
0.048212
0.071188
0.039470
0.049012
0.001113
0.004400
-0.001139
-0.006849
-0.005599
-0.005168
-0.000159
0.001395
0.004634
0.004798
0.003836
0.003600
0.000070
0.000048
0.001128
0.013886
0.007508
0.008311
0.000512
0.000528
-0.000796
0.000643
-0.000620
0.000119
0.003721
0.005496
0.004242
0.004158
0.001102
0.002150
0.001272
0.000885
0.000926
0.000520
0.000266
0.001492
-0.000153
0.000402
0.002636
0.003493
0.001257
0.002290
0.000888
0.001486
-0.000143
-0.000007
0.000629
0.001231
0.000344
0.000355
0.000098
-0.000167
0.000130
0.000222
0.001313
0.002742
0.003679
0.004124
0.006523
0.004192
0.002051
0.042798
0.042507
0.045175
0.050563
0.049539
0.052611
0.051784
0.045659
0.034535
0.017501
0.016596
0.015925
0.008518
0.008055
0.007664
0.006287
0.006476
0.003501
0.002990
0.007712
0.009257
0.013849
0.004992
0.015120
0.030058
0.048158
0.072109
0.058851
0.073663
0.081165
0.087737
0.098314
0.100214
0.100648
0.094366
0.084105
0.062210
0.048810
0.072980
0.052488
0.064149
0.021317
0.032053
0.012637
0.021215
0.006623
0.019164
0.009907
0.021348
0.012134
0.001432
0.017205
0.005184
0.012900
0.004901
0.009129
0.011077
0.011676
0.016835
0.015758
0.018277
0.008113
0.028005
0.008328
0.045560
0.034820
0.036310
0.055126
0.057452
0.069721
0.059216
0.097026
0.062297
0.090445
0.086888
0.046856
0.083385
0.059189
0.051516
0.059189
0.043180
0.051639
0.033256
0.045088
0.022833
0.028716
0.022969
0.012793
0.017610
0.012658
0.007425
0.008374
0.012356
0.006768
0.016800
0.017372
0.010072
0.015957
0.026662
0.014281
0.032801
0.029199
0.020650
0.038480
0.043245
-0.001623
-0.001258
-0.004222
-0.000826
-0.000402
-0.002986
0.000139
-0.000652
-0.001183
0.001541
0.000755
0.000891
-0.001065
-0.001926
-0.000276
-0.000286
0.001417
0.000760
0.000507
0.011318
0.008387
0.001782
-0.000166
0.000469
0.001035
0.000237
0.001581
0.001612
0.015309
0.005679
0.003904
0.002113
0.000912
0.001145
0.010656
0.003206
0.008416
0.007930
-0.004825
-0.016688
0.001711
0.005761
0.010192
0.010161
0.011687
0.001991
-0.000580
-0.010211
0.016416
0.015149
0.019349
0.023357
0.023436
0.001665
0.000876
0.000620
-0.000096
0.007192
0.013239
0.003789
0.004074
0.004211
0.006541
0.007129
0.004403
0.005021
0.003131
0.002010
0.001328
0.001035
0.000328
0.004830
0.012018
0.008247
0.005618
0.002228
0.004661
0.000518
0.001514
0.002805
0.001767
0.001627
0.000870
0.000255
-0.000135
-0.000011
0.000125
-0.000190
0.001932
0.001604
0.003468
0.006293
0.008819
0.007028
0.002334
0.000605
-0.003117
-0.014325
-0.011914
-0.000897
-0.001126
0.031154
0.038291
0.033460
0.036160
0.027294
0.033294
0.026600
0.001801
0.008487
0.026323
0.013548
0.027018
0.019446
0.013116
0.015529
0.008928
0.011667
0.015171
0.028035
0.015643
0.020179
0.014518
0.017387
0.029309
0.042128
0.045391
0.036986
0.062221
0.065823
0.084197
0.066928
0.092145
0.084689
0.062547
0.057522
0.073528
0.046037
0.052445
0.042152
0.051001
0.040844
0.034963
0.026186
0.021252
0.017767
0.018274
0.014923
0.016602
0.008130
0.012793
0.011885
0.008001
0.013097
0.014344
0.017221
0.020567
0.018311
0.023729
0.027850
0.034416
0.030490
0.041540
0.063234
0.067822
0.000992
-0.000394
-0.001708
0.000396
0.002793
0.000593
-0.000080
-0.001413
-0.000899
0.001319
0.012391
0.010898
0.004483
0.001799
0.001647
0.002041
-0.000259
0.008330
0.006712
0.000790
0.001670
0.004219
0.025156
0.017408
0.006753
0.006264
0.000081
0.000197
-0.007455
0.011370
-0.002863
-0.002528
-0.002413
-0.000071
0.001177
-0.000344
-0.001083
-0.000914
-0.001191
-0.000476
0.009601
0.013940
0.006979
0.000708
0.000511
0.000624
-0.003201
0.003896
0.032545
0.046433
0.024999
0.044993
0.017021
0.010030
0.008623
0.003488
0.003939
-0.001362
-0.012346
-0.003013
0.016279
0.002151
0.029117
0.012296
0.021665
0.032112
0.048395
0.054698
0.042985
0.042292
0.044028
0.050717
0.032385
0.030656
0.044119
0.046892
0.045625
0.049309
0.029076
0.037745
0.015262
0.017875
0.013869
0.008454
0.003157
0.006398
0.003418
0.003931
0.011509
0.008080
-0.004010
0.020156
0.014433
0.019616
0.026376
0.034710
0.032885
0.024545
0.025400
0.007439
0.006480
0.002162
0.031058
0.015624
0.006049
0.008693
0.015520
0.012106
0.006533
0.003089
0.002766
0.006841
0.001457
0.012213
0.009224
0.013199
0.010051
0.008345
0.008924
0.005630
0.005577
0.003018
0.002114
0.002530
0.000980
0.000595
0.000368
0.000108
-0.000861
0.001083
0.001545
0.001676
0.004934
0.011528
0.008355
0.011066
0.004730
0.002150
0.001099
-0.005226
-0.010482
0.015489
0.014712
0.034942
0.042947
0.047609
0.045375
0.040520
0.032779
0.020402
0.015072
0.020662
0.016069
0.005191
0.003472
-0.000766
0.006959
0.001877
0.016419
0.004976
0.009924
-0.012357
0.004029
0.000607
0.011430
0.009522
0.001717
0.002880
0.005896
0.011593
0.014302
0.037442
0.054913
0.036302
0.026058
0.032183
0.002252
0.004955
0.019708
0.014379
0.023275
0.032033
0.035701
0.010062
0.016908
0.023452
0.030700
0.017922
0.019654
0.015331
0.024585
0.025915
0.041566
0.040888
0.041065
0.055009
0.054432
0.077064
0.062703
0.070509
0.062841
0.079882
0.074800
0.077110
0.079653
0.067854
0.051753
0.074067
0.055563
0.047293
0.044445
0.043651
0.039466
0.033371
0.032308
0.024470
0.018436
0.015303
0.015343
0.014792
0.023774
0.011418
0.009249
0.013257
0.016222
0.011949
0.018481
0.020235
0.024896
0.027724
0.035066
0.040493
-0.003725
0.001241
0.000170
-0.000094
-0.000357
0.000516
-0.000641
-0.000600
0.052376
0.014971
0.017879
0.004169
0.002430
0.001042
0.000605
0.007521
0.025685
0.032037
0.026513
0.024365
0.014426
0.006610
0.004378
0.006718
-0.002191
0.006273
-0.027626
0.010131
0.009546
0.003216
0.015159
0.012002
0.021535
0.024241
0.026798
0.027736
0.038189
0.033128
0.033721
0.049871
0.024032
0.020649
0.032349
0.082249
0.007475
0.006138
0.018780
0.038224
0.025206
0.036246
0.021762
0.044076
0.026812
0.021989
0.015106
0.023262
0.014495
0.003643
0.006806
0.007753
0.047367
0.083884
0.046129
0.026903
0.035867
0.048031
0.045558
0.039289
0.057317
0.033449
0.026646
0.018790
0.025016
0.019188
0.042226
0.007711
0.006809
0.008228
0.012067
0.013057
0.010645
0.009918
0.008411
0.010112
0.004586
0.004955
0.006429
0.001913
0.000892
0.000912
0.000862
-0.001798
0.000316
0.001440
0.005863
0.002005
0.006443
0.017755
0.013844
0.011499
0.013783
0.005558
0.005760
0.005085
0.002736
0.067051
0.022032
0.061231
0.042373
0.013680
0.058145
0.036895
0.000648
0.024237
0.008920
0.020597
0.029862
0.028425
0.028224
0.028908
0.017780
0.013854
0.020111
0.023403
0.026731
0.035555
0.042113
0.048854
0.047320
0.061762
0.062506
0.053440
0.067822
0.076179
0.063448
0.091131
0.059754
0.081314
0.077110
0.076358
0.069422
0.056708
0.065086
0.063760
0.044856
0.045200
0.046766
0.040633
0.037072
0.032261
0.029067
0.027278
0.020467
0.017342
0.032519
0.013496
0.014226
0.011917
0.011260
0.020271
0.021534
0.017874
0.020453
0.022658
0.034980
0.042409
0.013515
0.014018
0.017823
0.028777
0.049421
0.048018
0.043407
0.039564
0.034236
0.036553
0.028179
0.026548
0.035538
0.017433
0.007914
0.002569
0.005270
0.008197
0.006620
0.005067
0.008876
0.007492
-0.003930
-0.002242
0.024192
0.030561
0.014906
0.012269
0.006460
0.006810
0.007572
0.002468
0.002289
0.005603
0.001569
0.015015
0.021461
0.033676
0.028742
0.014208
0.010805
0.003882
0.003353
0.004907
0.008371
0.020009
0.013813
0.025233
0.025598
0.023923
0.030460
0.017907
0.015715
0.010937
0.009690
0.006761
0.011538
-0.005497
-0.009166
-0.007073
0.005729
0.005182
0.006421
0.002864
0.003910
0.005960
0.006612
0.020097
0.034203
0.043909
0.027922
0.026811
0.032725
0.011772
0.011066
0.031136
0.007115
0.008382
0.007522
0.018579
0.021510
0.034435
0.035276
0.031896
0.034050
0.029529
0.029434
0.029720
0.014432
0.013516
0.018311
0.020268
0.030184
0.034232
0.042622
0.044540
0.050367
0.066231
0.065903
0.066412
0.058813
0.076520
0.083977
0.089206
0.059240
0.000005
0.000166
0.005362
0.004248
-0.003209
-0.004019
0.001935
0.002571
0.011121
0.028873
0.031600
0.024674
0.020559
0.027872
0.017878
0.012423
0.008583
0.008318
0.004869
0.033905
0.033039
0.022024
0.015741
0.019163
0.023635
0.014701
0.021963
0.012711
0.007967
0.001629
0.006748
0.004386
0.007711
0.011739
0.004377
0.003334
0.002484
0.030336
0.038745
0.057527
0.048983
0.021000
0.026765
0.035536
0.066083
0.047737
0.055185
0.056459
0.074173
0.070422
0.047194
0.041591
0.029449
0.052621
0.040580
0.047143
0.056437
0.052564
0.033097
0.040425
0.024114
0.028314
0.021928
0.012934
0.010852
0.007461
0.010829
0.011976
0.007820
0.008611
0.008003
0.005495
0.007085
0.067693
0.074680
0.075959
0.062263
0.062028
0.066152
0.062224
0.048566
0.051519
0.043979
0.039675
0.028205
0.029767
0.033020
0.029002
0.019799
0.023303
0.014417
0.011550
0.015958
0.009336
0.016243
0.032805
0.022324
0.019724
0.024960
0.002077
0.003724
0.003221
0.004986
0.010259
0.016385
0.010967
0.001650
0.014816
0.019937
0.032175
0.030708
0.028302
0.032981
0.029282
0.024599
0.012137
0.014835
0.007285
0.008318
0.016171
0.018156
0.019521
0.022482
0.026405
0.036661
0.017829
0.028725
0.008521
0.001573
0.009558
0.010618
0.008591
0.009892
0.005061
0.005851
0.007913
0.020559
0.041999
0.058780
0.076731
0.074765
0.007612
0.009518
0.010658
0.021589
0.026821
0.033186
0.034450
0.023928
0.008356
0.006785
0.014335
0.017026
0.012714
0.011912
0.020233
0.014979
0.003051
0.015858
0.018077
0.018168
0.002261
0.023243
0.013409
0.008366
0.010538
0.018007
0.008113
0.022343
0.016497
0.019683
0.013847
0.033824
0.033083
0.034043
0.030755
0.023403
0.024534
0.014823
0.013003
0.015811
0.023824
0.028603
0.037266
0.044105
0.046359
0.043447
0.063314
0.047001
0.079047
0.061857
0.069019
0.062887
0.071432
0.069330
0.012880
0.017883
0.013550
0.014930
0.015296
0.013240
0.022627
0.014408
0.038598
0.047180
0.027383
0.020313
0.023337
0.021411
0.013882
0.012303
0.011640
0.020404
0.008740
0.070396
0.079778
0.065559
0.059647
0.067217
0.056539
0.060226
0.048312
0.048813
0.039873
0.048070
0.045226
0.034819
0.037440
0.036489
0.038656
0.031334
0.030316
0.024411
0.026611
0.011970
0.007281
0.007777
0.006817
0.014741
0.037209
0.036860
0.005200
0.005457
0.005526
0.005938
0.008101
0.026224
0.086421
0.050299
0.160323
0.079414
0.037900
0.044388
0.032963
0.040830
0.036892
0.043065
0.031915
0.020984
0.021828
0.013918
0.014354
0.008537
0.014721
0.021146
0.018395
0.016672
0.015873
0.012479
0.014528
0.008708
0.019609
0.026221
0.021183
0.018863
0.020372
0.017863
0.011799
0.006596
0.006050
0.009435
0.004280
-0.000401
0.006975
0.009495
0.055031
0.039909
0.046397
0.064182
0.064126
0.049990
0.051714
0.053544
0.050183
0.042995
0.050124
0.039101
0.040853
0.022441
0.014740
0.009123
0.011701
0.009109
0.010988
0.007800
0.005415
0.009939
0.001455
0.036506
0.031130
0.022405
0.011423
0.017585
0.004514
0.007080
0.008504
0.008098
0.009841
0.004495
0.007511
0.070455
0.049975
0.051130
0.052276
0.055601
0.024812
0.027470
0.015279
0.015646
0.014731
0.024280
0.027158
0.034395
0.046879
0.054317
0.055800
0.057534
0.048323
0.064746
0.073307
0.083715
0.082745
0.069450
0.065915
0.058721
0.072106
0.074719
0.074410
0.061105
0.068564
0.060496
0.062119
0.051760
0.025629
0.024550
0.017960
0.016467
0.013042
0.020386
0.039549
0.051283
0.044043
0.031096
0.022197
0.031401
0.018973
0.013949
0.012860
0.015190
0.020194
0.020476
0.025546
0.036859
0.044047
0.036396
0.043073
0.037630
0.038109
0.040177
0.034894
0.032663
0.020118
0.015131
0.004270
0.007191
0.009808
0.007593
0.036392
0.010300
0.036192
0.048768
0.058357
0.073622
0.086327
0.075067
0.018407
0.016304
0.022431
0.026958
0.035660
0.040276
0.035969
0.026260
0.022368
0.024373
0.014430
0.012851
0.003515
0.004966
0.004940
0.011618
0.010223
0.011105
0.008215
0.007760
0.005593
0.014763
0.008482
0.017691
0.024814
0.009230
0.011193
0.012990
0.019320
0.036219
0.071041
0.080985
0.100585
0.074019
0.057894
0.049453
0.044093
0.043220
0.042752
0.050062
0.041047
0.042781
0.033606
0.022824
0.021792
0.048901
0.051069
0.049796
0.048380
0.054383
0.068206
0.083652
0.060921
0.075885
0.054280
0.065706
0.052422
0.047649
0.057824
0.036569
0.054894
0.062696
0.060179
0.043798
0.060224
0.012681
0.014197
0.076685
0.079255
0.094683
0.079297
0.083956
0.053886
0.082659
0.082660
0.077572
0.076329
0.082334
0.076330
0.068784
0.058260
0.080039
0.057861
0.058402
0.052494
0.044085
0.044746
0.080334
0.057243
0.098480
0.088932
0.067401
0.083602
0.054825
0.061201
0.080042
0.062014
0.059021
0.080841
0.070269
0.072534
0.064380
0.075511
0.061941
0.089876
0.050027
0.055585
0.051627
0.047781
0.047673
0.043796
0.053907
0.041658
0.044022
0.033710
0.043864
0.035523
0.036192
0.023401
0.016711
0.009558
0.001899
0.000746
0.010158
0.067437
0.070087
0.038695
0.052372
0.048527
0.058897
0.067868
0.062332
0.062621
0.054864
0.059554
0.051357
0.052871
0.077607
0.060336
0.053899
0.063308
0.044920
0.054015
0.068143
0.060132
0.070366
0.062805
0.061407
0.060749
0.058885
0.046605
0.059167
0.039846
0.024551
0.020633
0.015603
0.021725
0.030850
0.044828
0.057942
0.073779
0.077130
0.071499
0.048845
0.007564
0.012165
0.016712
0.025249
0.046070
0.042582
0.055654
0.062050
0.079511
0.065325
0.059828
0.053548
0.059060
0.051619
0.047779
0.047109
0.045268
0.053733
0.039372
0.044822
0.040301
0.032685
0.076814
0.031220
0.033232
0.040579
0.040776
0.047466
0.026295
0.019033
0.019919
0.020542
0.014309
0.012096
0.009728
0.008887
0.001102
0.005373
0.005514
0.101231
0.056857
0.076014
0.053875
0.075571
0.051562
0.056242
0.051575
0.047611
0.049024
0.048164
0.051795
0.039115
0.052251
0.000710
0.001181
0.003664
0.010350
0.009071
0.018543
0.005828
0.029998
0.040473
0.046645
0.059361
0.073040
0.078354
0.053866
0.038821
0.036374
0.043297
0.052312
0.044590
0.050601
0.054179
0.062743
0.013407
0.019089
0.029662
0.041279
0.052398
0.049022
0.061217
0.083035
0.066300
0.055535
0.055926
0.055673
0.054880
0.049495
0.047017
0.053893
0.036457
0.055095
0.049863
0.053136
0.046429
0.041625
0.038877
0.044082
0.056927
0.053858
0.063472
0.042956
0.044358
0.043058
0.038830
0.023555
0.024833
0.012028
0.002622
0.033017
0.016669
0.039768
0.046533
0.044800
0.052229
0.058242
0.043967
0.031261
0.026906
0.026057
0.018283
0.017310
0.020112
0.017602
0.005110
0.015819
0.015842
0.019879
0.002532
0.013311
0.019052
0.053145
0.040128
0.059708
0.067532
0.070740
0.055509
0.043142
0.041791
0.045182
0.049599
0.041945
0.049401
0.056709
0.060128
0.077129
0.074777
0.078637
0.101949
0.070572
0.075450
0.061796
0.070733
0.073595
0.075706
0.062285
0.071410
0.075891
0.048946
0.044802
0.048877
0.046271
0.051172
0.044821
0.056910
0.050753
0.038845
0.032748
0.021217
0.035477
0.042056
0.043887
0.047437
0.061150
0.064424
0.069597
0.060090
0.055302
0.063500
0.051590
0.059112
0.052697
0.054308
0.051733
0.054449
0.056139
0.056382
0.053829
0.042068
0.047947
0.050908
0.061397
0.054314
0.044162
0.061544
0.050722
0.060941
0.053942
0.044651
0.042572
0.032000
0.019043
0.023768
0.023623
0.023227
0.015241
0.031487
0.065419
0.063409
0.046768
0.053742
0.049421
0.053501
0.071264
0.083605
0.054462
0.069443
0.078873
0.074240
0.075088
0.052050
0.053414
0.066913
0.065664
0.069818
0.082351
0.065614
0.075835
0.058696
0.070336
0.064980
0.068913
0.057171
0.054207
0.052394
0.050413
0.054162
0.061282
0.052714
0.051853
0.047529
0.050702
0.059977
0.057188
0.027710
0.019540
0.057661
0.049773
0.067370
0.076380
0.075539
0.062292
0.054456
0.061908
0.053854
0.064859
0.048299
0.036389
0.039826
0.046632
0.046654
0.055549
0.055318
0.055822
0.063740
0.057125
0.048676
0.071009
0.061786
0.057316
0.074039
0.056352
0.048768
0.064713
0.072543
0.069606
0.074750
0.066809
0.074742
0.066391
0.078757
0.068381
0.061610
0.058646
0.056447
0.055750
0.050996
0.053957
0.051206
0.054284
0.055432
0.070560
0.062139
0.062576
0.072379
0.088596
0.079265
0.087870
0.063584
0.062834
0.064406
0.059509
0.064198
0.056641
0.047409
0.056703
0.055005
0.056905
0.043646
0.052600
0.054883
0.052793
0.067142
0.060844
0.051237
0.083388
0.055988
0.062551
0.063160
0.063696
0.058374
0.053003
0.054523
0.049851
0.068583
0.053989
0.067009
0.056127
0.076647
0.060102
0.097595
0.061672
0.071540
0.054270
0.063130
0.064541
0.059854
0.055893
0.059517
0.058847
0.070323
0.059284
0.077616
0.066292
0.072994
0.065424
0.067677
0.086587
0.059051
0.060484
0.062850
0.081235
0.053132
0.072603
0.075018
0.063002
0.067620
0.069537
0.061261
0.048074
0.063377
0.042580
0.042089
0.032973
0.043073
0.046918
0.052445
0.003682
0.006042
0.010135
0.006246
0.010971
0.037499
0.013074
0.031500
0.020151
0.007742
0.015790
0.046378
0.061358
0.052557
0.008827
0.013500
0.009841
0.014701
0.022203
0.011060
0.041688
0.035895
0.039578
0.047598
0.056546
0.044622
0.050607
0.045654
0.046056
0.034957
0.044536
0.044960
0.057525
0.056226
0.051217
0.054888
0.058399
0.042964
0.039810
0.053750
0.045802
0.049555
0.053768
0.061773
0.084528
0.047340
0.048806
0.042192
0.048078
0.017447
0.007041
0.037449
0.016743
0.024443
0.025085
0.016827
0.016506
0.013667
0.015043
0.009452
0.005078
0.001546
0.003359
0.001948
0.001372
0.001558
0.002110
0.000165
0.000759
0.004954
0.004556
0.001403
0.001647
0.006865
0.002962
0.002379
0.006727
0.010426
0.008604
0.004377
0.003364
0.003074
0.003027
-0.000107
-0.000058
0.002137
0.023613
0.039683
0.035441
0.049135
0.054769
0.045963
0.055244
0.039637
0.046409
0.015317
0.015477
0.019537
0.012613
0.010650
0.008269
0.011170
0.005960
0.015898
0.014731
0.005000
-0.001304
-0.001749
-0.002634
0.000012
0.001130
0.006523
0.007359
0.002989
0.002517
0.000063
0.001655
0.002237
0.004475
0.000583
0.003889
0.000917
0.000225
0.001752
0.001323
0.000213
0.000218
0.000521
-0.000305
0.000376
-0.000813
0.000566
0.000236
0.000727
0.003182
0.007861
0.005929
0.013506
0.001354
0.001441
0.000417
0.000493
-0.000024
0.000181
0.000444
0.000971
0.002881
0.003522
0.004664
0.004618
0.004692
0.004177
0.001841
0.001843
0.001242
0.001664
0.000584
0.035190
0.047032
0.016096
0.044788
0.017022
0.046964
0.014354
0.047572
0.042354
0.052445
0.064512
0.052644
0.069531
0.026136
0.083110
0.026611
0.055556
0.026329
0.054594
0.029441
0.038490
0.019751
0.049354
0.014811
0.057137
0.018894
0.060585
0.022029
0.055073
0.016922
0.060670
0.023495
0.049221
0.034879
0.059979
0.022608
0.083309
0.021229
0.069587
0.031271
0.067279
0.023967
0.064679
0.020718
0.061176
0.029720
0.058012
-0.001737
-0.006355
-0.002678
-0.000950
0.000086
0.000328
-0.000385
0.000377
0.003603
0.005646
0.011895
0.018385
0.020266
0.044580
0.014181
0.009886
0.017034
0.016961
0.011787
0.012819
0.008167
0.007724
0.003940
0.007922
0.015373
0.004981
0.003043
0.003041
0.005145
0.002753
0.002786
0.005829
0.000556
0.003316
-0.000208
0.002020
0.005188
0.011831
0.023697
0.015711
0.007374
0.003720
0.002414
-0.001215
-0.009989
0.004090
0.002306
0.012746
0.002670
0.000695
0.003367
0.004373
0.006537
0.005927
0.003069
0.014903
0.003266
0.001077
0.003916
0.003037
0.000486
0.001124
0.000624
0.000915
-0.000596
0.000970
0.001109
0.004396
0.004632
0.005103
0.006962
0.013841
0.015475
0.004493
0.001288
0.000952
0.000339
0.000207
0.001183
0.001561
0.001008
0.001661
0.002727
0.007057
0.006707
0.009715
0.006356
0.003655
0.002047
0.000556
0.001641
0.004390
0.034007
0.003307
-0.006865
-0.008240
0.035216
0.040481
0.030437
0.045378
0.039440
0.047328
0.051252
0.042256
0.053852
0.050683
0.070702
0.050407
0.066717
0.054560
0.054523
0.049929
0.052836
0.040892
0.029457
0.037472
0.032100
0.038511
0.041509
0.039508
0.048887
0.046977
0.047604
0.049129
0.042979
0.040678
0.037375
0.055098
0.050315
0.043531
0.044854
0.060905
0.047679
0.066879
0.055259
0.046384
0.062138
0.063826
0.066178
0.049945
0.054131
0.038674
0.059777
0.045740
0.053553
0.067948
0.056713
0.061240
0.060810
0.049377
0.024874
0.019054
0.014670
0.009455
0.012660
0.018040
0.031551
0.038781
0.033248
0.037108
0.000183
0.001645
0.000829
0.001655
0.001447
0.001491
0.001712
0.006686
0.013276
0.016568
0.026715
0.038384
0.001618
0.002515
0.008538
0.014322
0.002335
0.007600
0.018996
0.032833
0.009564
0.012626
0.027188
0.015174
0.021541
0.061589
0.107706
0.017631
0.014807
-0.006996
-0.006514
-0.006475
-0.004838
0.001400
0.005817
0.015919
0.020089
0.027118
0.060684
0.053085
0.016510
0.001978
0.000299
0.004307
0.014844
0.011051
0.018164
0.017860
0.007096
0.004266
0.003786
0.000608
0.000769
0.000869
0.001514
0.005465
0.005206
0.010121
0.015530
0.010170
0.004645
0.002196
0.001602
0.001061
0.002178
0.001854
0.001345
0.004312
0.005031
0.015644
0.020987
0.036423
0.014490
0.012081
0.011508
0.007649
0.019347
0.012693
0.018384
0.020623
0.016570
0.027169
0.027002
0.035839
0.038473
0.036940
0.041664
0.031765
0.030838
0.033713
0.031480
0.029126
0.015394
0.010289
0.009409
0.007749
0.006489
0.010882
0.016229
0.011229
0.038524
0.058022
0.054145
0.053800
0.063365
0.062308
0.056947
0.078138
0.073661
0.060667
0.050435
0.053486
0.055343
0.033941
0.051057
0.043810
0.063335
0.054585
0.040564
0.040050
0.054282
0.059605
0.055552
0.061762
0.059807
0.066519
0.045731
0.070196
0.064774
0.083942
0.069745
0.048302
0.045907
0.042175
0.032811
0.040208
0.033489
0.041632
0.046409
0.044167
0.054285
0.051389
0.054898
0.048022
0.040502
0.052280
0.045693
0.042177
0.054814
0.055746
0.066652
0.067249
0.057841
0.058023
0.079506
0.054991
0.061083
0.062050
0.046045
0.053238
0.017769
0.017194
0.029144
0.026706
0.029363
0.032327
0.020219
0.029888
0.032357
0.030054
0.020710
0.032232
0.059287
0.083419
0.064212
0.016796
-0.005003
-0.012332
-0.003432
-0.009370
0.008196
0.005547
0.008475
0.010661
0.049576
0.030025
0.034072
0.062272
0.052557
0.035828
0.021205
0.041735
0.028134
0.009630
0.014857
0.017777
0.018744
0.019720
0.007935
0.003596
0.002250
0.004324
0.001478
0.001378
0.000870
0.002266
0.005615
0.007262
0.017864
0.008405
0.011377
0.007188
0.004515
0.006499
0.005155
0.005376
0.008393
0.021817
0.027343
0.086987
0.031126
0.029410
0.030755
0.022438
0.023386
0.020792
0.030641
0.030086
0.030958
0.037331
0.040049
0.041022
0.040828
0.044943
0.044842
0.047221
0.044690
0.047008
0.054883
0.065449
0.050302
0.056648
0.064994
0.062022
0.069020
0.059457
0.058474
0.067333
0.051214
0.065534
0.057747
0.061166
0.066659
0.038335
0.044990
0.048001
0.034263
0.032552
0.021845
0.014968
0.013221
0.012136
0.009857
0.050393
0.050944
0.051991
0.052049
0.060280
0.059686
0.062084
0.058862
0.051785
0.065815
0.072197
0.078759
0.060456
0.056067
0.061942
0.046671
0.034275
0.045351
0.032825
0.044039
0.044654
0.049274
0.047855
0.056955
0.056441
0.049261
0.045919
0.054336
0.042635
0.051365
0.062023
0.061499
0.060022
0.062205
0.065648
0.074621
0.092611
0.054686
0.061139
0.067553
0.056321
0.053012
0.018398
0.022954
0.027965
0.037912
0.034125
0.045337
0.046191
0.041076
0.033331
0.026849
0.038789
0.057931
0.066459
0.082091
0.025735
0.039933
0.023130
-0.011315
-0.013390
-0.006638
0.000198
0.005168
0.008721
0.004305
0.041848
0.050721
0.047125
0.055719
0.055143
0.045185
0.008350
-0.008638
-0.022622
-0.011002
0.034300
0.049950
0.011642
0.003465
0.010893
0.011934
0.041916
0.064857
0.055625
0.060815
0.054165
0.033689
0.028665
0.010281
0.010171
0.007036
0.015971
0.016860
0.016260
0.017527
0.018625
0.016472
0.008326
0.003629
0.003174
0.003251
0.001870
0.001448
0.005358
0.005381
0.014035
0.011373
0.010567
0.012883
0.005495
0.005408
0.012501
0.013158
0.015564
0.026427
0.026168
0.038811
0.061549
0.059626
0.058118
0.052305
0.042114
0.036077
0.033148
0.032470
0.031340
0.033238
0.036993
0.033650
0.055446
0.053603
0.052990
0.055831
0.054717
0.051901
0.057651
0.058340
0.075600
0.066491
0.068876
0.067067
0.066406
0.070523
0.075133
0.074326
0.067582
0.071878
0.073205
0.078562
0.058810
0.059290
0.051308
0.052711
0.074112
0.058600
0.061673
0.053926
0.042958
0.033004
0.030070
0.021233
0.019856
0.031940
0.056787
0.072122
0.073434
0.061144
0.072526
0.067667
0.072801
0.098707
0.077275
0.055995
0.061971
0.059034
0.051952
0.049664
0.034903
0.045247
0.033128
0.044766
0.039773
0.055964
0.064024
0.050267
0.050409
0.041975
0.046302
0.052825
0.050821
0.052398
0.067482
0.070131
0.067005
0.063335
0.102279
0.090293
0.070773
0.079782
0.065687
0.072549
0.037815
0.030050
0.038891
0.041928
0.008816
0.003523
0.003545
0.006812
0.008317
0.010912
0.012990
0.010555
0.010168
0.013977
0.015252
0.015146
0.015246
0.031825
0.028988
0.040383
0.046646
0.058151
0.065709
0.069965
0.071183
0.060625
0.058175
0.049820
0.035661
0.044675
0.034141
0.043803
0.058078
0.025411
0.011703
-0.007404
-0.013862
-0.007549
0.012438
0.026313
0.027249
0.021473
0.018458
0.016837
0.037054
0.070918
0.052867
0.059040
0.057429
0.059303
0.044918
0.029497
0.049887
0.036212
0.022309
0.013340
0.011256
0.052119
0.040284
0.040632
0.045725
0.052582
0.053610
0.045286
0.067861
0.057923
0.067604
0.071451
0.059609
0.084903
0.056614
0.067631
0.077727
0.074680
0.069674
0.060419
0.076847
0.075672
0.072618
0.075146
0.070110
0.069141
0.070190
0.071740
0.078397
0.070589
0.054187
0.012806
0.017325
0.016438
0.013673
0.010455
0.069755
0.063237
0.070636
0.070870
0.091024
0.085002
0.103861
0.079405
0.075109
0.067155
0.060921
0.058238
0.054059
0.044898
0.034938
0.034199
0.048579
0.041228
0.015949
0.023469
0.039692
0.060384
0.043617
0.043552
0.041752
0.066020
0.053082
0.056978
0.085485
0.064785
0.083394
0.109016
0.085690
0.084957
0.078727
0.066414
0.059790
0.043256
0.040302
0.060579
0.070486
0.068730
0.090980
0.084357
0.078245
0.086611
0.092951
0.089554
0.086217
0.079615
0.081851
0.077262
0.082420
0.075590
0.077668
0.069164
0.059481
0.006410
0.010089
0.007161
0.014270
0.013801
0.023625
0.034926
0.040146
0.054423
0.055233
0.058150
0.065255
0.074600
0.081777
0.091873
0.086718
0.066969
0.067970
0.065310
0.051235
0.050281
0.049629
0.054096
0.033477
0.050018
0.049317
0.069846
0.016845
0.019534
0.012404
0.057447
0.077677
0.086144
0.065864
0.036651
0.048413
0.023195
0.008463
0.002738
-0.007154
0.001561
0.008047
-0.003437
0.026535
0.034012
0.027500
0.039745
0.046407
0.064492
0.047761
0.062971
0.055494
0.063488
0.061779
0.050121
0.057355
0.046741
0.042964
0.030459
0.021410
0.014268
0.064462
0.082872
0.080832
0.088454
0.076477
0.095675
0.092672
0.081549
0.095476
0.057555
0.070753
0.049143
0.059266
0.044702
0.041295
0.028489
0.047518
0.022585
0.013923
0.016485
0.022534
0.055132
0.034183
0.039777
0.049865
0.057432
0.065510
0.071600
0.069059
0.079975
0.073087
0.100595
0.099343
0.089278
0.081967
0.049675
0.059905
0.074396
0.078365
0.060199
0.071271
0.058016
0.014810
0.026539
0.030858
0.049140
0.056698
0.060723
0.062924
0.066632
0.071820
0.080632
0.093404
0.100058
0.109792
0.095170
0.089972
0.077106
0.071481
0.058950
0.065483
0.054728
0.064873
0.085666
0.063163
0.075995
0.078573
0.075793
0.069121
0.084947
0.076831
0.066993
0.038502
0.037937
0.037938
0.011146
0.005704
-0.014215
-0.006117
-0.006092
0.056444
0.004172
0.001421
0.004107
-0.003536
-0.005896
-0.002031
0.007797
0.002462
0.036047
0.023275
0.038951
0.067137
0.053249
0.068252
0.075199
0.091084
0.057875
0.061435
0.088041
0.084240
0.101334
0.079544
0.108553
0.109983
0.087060
0.074917
0.068106
0.058186
0.066985
0.042522
0.038309
0.029611
0.033202
0.025431
0.014265
0.011017
0.015696
0.034230
0.048399
0.040509
0.047931
0.055020
0.060497
0.062903
0.099924
0.079933
0.076284
0.086696
0.105777
0.084229
0.086783
0.075984
0.079903
0.091182
0.080976
0.068447
0.085453
0.073102
0.080565
0.079251
0.084608
0.079957
0.066277
0.068126
0.070893
0.065663
0.061451
0.053208
0.056742
0.067794
0.044236
0.071225
0.076400
0.079450
0.088077
0.096838
0.105884
0.113128
0.121597
0.103055
0.106956
0.092050
0.080918
0.071969
0.075951
0.073436
0.066221
0.054975
0.056547
0.076922
0.084074
0.041696
0.032757
0.088300
0.083679
0.097075
0.108126
0.092519
0.099661
0.064221
0.095379
0.068925
0.061723
0.039326
0.050675
0.027803
0.027194
0.007945
0.014478
0.015272
0.006117
0.019748
0.033479
0.049946
0.055137
0.045330
0.063019
0.070228
0.077640
0.074397
0.096523
0.093166
0.101050
0.092319
0.098249
0.078931
0.097623
0.117670
0.089303
0.100852
0.084941
0.097311
0.078965
0.074842
0.076493
0.087420
0.091109
0.098401
0.110688
0.097584
0.099710
0.087110
0.128620
0.091287
0.096817
0.093600
0.077587
0.078157
0.073290
0.073108
0.077145
0.072110
0.086596
0.103157
0.085949
0.083947
0.112660
0.085734
0.091696
0.071162
0.070630
0.079754
0.074117
0.078109
0.073226
0.044936
0.032445
0.022195
0.006867
0.010274
-0.003057
-0.004502
-0.001583
-0.004706
0.007959
0.006959
0.036733
0.018980
0.035696
0.052120
0.066036
0.076700
0.074084
0.080504
0.072152
0.076310
0.076436
0.079993
0.080513
0.092962
0.100343
0.081857
0.083435
0.088559
0.078495
0.056175
0.046233
0.040300
0.028344
0.029920
0.022481
0.009479
0.010829
0.025267
0.018843
0.044006
0.039825
0.047908
0.047754
0.069806
0.070681
0.069936
0.096458
0.064012
0.100557
0.095081
0.082921
0.065698
0.082155
0.084527
0.076191
0.094727
0.092987
0.102798
0.074233
0.090458
0.073383
0.062500
0.043185
0.036160
0.027602
0.034915
0.038700
0.007561
0.009961
0.017007
0.036544
0.021366
0.048602
0.077411
0.039016
0.067197
0.078334
0.069720
0.079618
0.107253
0.083404
0.098104
0.095353
0.087335
0.073315
0.074399
0.081868
0.083362
0.094529
0.077410
0.076606
0.064252
0.059449
0.035872
0.025274
0.013173
0.006891
0.003647
-0.000784
0.071549
0.090881
0.091795
0.108667
0.119173
0.081836
0.116063
0.082687
0.087216
0.083336
0.079935
-0.001098
0.002167
0.057193
0.026373
0.006536
0.020778
0.073800
0.028921
0.067090
0.083424
0.058390
0.094535
0.087118
0.020928
0.092463
0.084929
0.074550
0.092019
0.029055
0.012094
0.037500
0.031656
0.064032
0.070901
0.087650
0.077490
0.089019
0.089393
0.034334
0.039981
0.043695
0.063816
0.066362
0.090673
0.089572
0.054181
0.062867
0.069213
0.095352
0.092555
0.113960
0.098007
0.056179
0.075552
0.061609
0.087741
0.046499
0.037424
0.042818
0.032535
0.069782
0.065379
0.080666
0.091136
0.078819
0.085087
0.075020
0.000426
0.001693
0.003573
0.004075
0.057707
0.086828
0.058572
0.071714
0.049658
0.045995
0.054083
0.048578
0.026194
0.012929
0.064254
0.074974
0.055459
0.074782
0.025542
0.014351
0.081983
0.092519
0.093415
0.099689
0.071110
0.026587
0.038099
0.013881
0.011514
SCALARS LE11_SP1(MPa) float 1
LOOKUP_TABLE default
0.222657
0.214699
0.057657
-0.072726
0.336306
0.073989
0.176645
-0.142831
-0.359338
-0.333295
-0.292501
-0.154184
-0.037960
0.174196
0.209350
0.146951
0.140631
0.136858
-0.062927
0.062371
-0.235736
-0.169052
-0.062833
-0.103361
-0.070014
0.057440
-0.000009
-0.000333
-0.350952
-0.405839
-0.164992
-0.322848
-0.264845
0.058294
0.332835
0.217516
0.056155
-0.269621
-0.045574
-0.147700
-0.008150
-0.031232
-0.076341
-0.017097
0.197526
0.035560
-0.060427
-0.038140
0.104401
0.045834
0.224317
0.313984
0.006461
0.056335
0.262094
0.343486
0.387315
0.358813
0.259736
0.407042
-0.095694
0.255173
0.156871
0.204626
0.358606
-0.132833
0.266807
0.315866
0.397746
0.294208
0.245737
0.036798
0.204996
0.168283
0.060014
-0.181299
0.053886
-0.055930
-0.050540
-0.210000
0.146868
0.222506
0.331274
-0.226491
0.192036
-0.210453
-0.061815
-0.093311
-0.121461
-0.211512
-0.044515
0.027981
0.096841
0.094713
0.210424
0.307182
0.099571
-0.147648
-0.059000
0.269352
0.273331
0.183729
0.027035
0.353378
0.415034
0.395645
0.290017
0.219728
0.246515
0.300239
0.321789
0.344274
0.391894
0.331014
0.311596
0.304974
0.347854
0.407954
0.457515
0.109227
0.043103
-0.149958
-0.110127
-0.241122
-0.248054
-0.135797
-0.236682
-0.206414
-0.176807
-0.043492
0.075592
0.177590
0.137871
0.277972
0.308617
-0.096070
0.005138
-0.212062
-0.139098
-0.284255
-0.132276
-0.089972
0.062248
-0.146438
0.003283
-0.026786
-0.042501
0.032957
0.009683
-0.072720
-0.090626
-0.085435
-0.186117
-0.308088
-0.467641
0.052031
0.088182
0.242803
0.198829
0.077340
0.276493
-0.039449
-0.271920
-0.315505
-0.368509
-0.331348
-0.338604
-0.236512
-0.062695
0.064147
0.148554
0.263153
0.128010
-0.034471
-0.240209
-0.215692
-0.394420
-0.392123
-0.277847
-0.177108
-0.239787
-0.287978
-0.330198
-0.334358
-0.229556
-0.280033
-0.431095
-0.256343
0.043173
0.285634
0.224921
0.023882
-0.153858
0.106382
0.062680
0.072859
0.139238
0.090194
-0.054213
-0.002656
-0.073191
0.117723
-0.002813
0.034731
0.142132
0.107872
0.076777
0.126053
0.401446
0.377354
0.407553
0.328391
0.169348
0.065979
0.128193
0.359174
0.153713
-0.173852
0.216847
0.271684
0.385382
0.293198
0.317292
0.251121
0.258512
0.281312
0.333707
-0.011272
-0.107162
0.156858
-0.060695
-0.172569
-0.198155
0.080739
0.041547
0.080209
-0.332005
-0.192558
-0.042043
0.073808
0.047631
-0.190343
-0.229125
-0.212919
-0.082739
-0.073225
-0.041987
0.019918
0.142853
0.359817
0.289417
0.045383
-0.074095
0.018193
-0.003379
-0.114106
-0.039016
0.165869
0.218440
0.218431
0.300139
0.308566
0.312668
0.345669
0.357506
0.367898
0.367608
0.392997
0.391031
0.428345
0.460781
0.438875
0.275690
0.177685
-0.039090
-0.202199
-0.345517
-0.373682
-0.353902
-0.364732
-0.405142
-0.308567
-0.065849
0.200380
0.357708
0.383864
0.465891
0.403767
0.036740
0.184310
-0.110097
-0.140300
-0.145788
-0.019737
0.166939
0.125931
-0.021282
-0.023098
-0.050740
-0.061976
0.009538
0.137336
-0.039681
0.028151
0.078063
-0.155582
-0.299062
-0.456664
-0.039548
0.042577
0.275885
-0.145954
0.141083
0.002186
-0.023753
-0.246525
-0.325759
-0.326844
-0.290791
-0.266213
0.017943
0.172158
0.159590
0.269837
0.166354
-0.019312
-0.161395
-0.208250
-0.245826
-0.282073
-0.149761
-0.211458
-0.375248
-0.372258
-0.450710
-0.453184
-0.424897
-0.288048
-0.449554
-0.297479
-0.140246
0.178966
0.252118
0.157951
0.036380
0.071385
0.050013
0.279935
0.115779
0.034184
0.111167
-0.006725
0.278129
0.272010
0.119919
0.160899
0.181110
0.216902
0.226514
0.362918
0.198462
0.114726
0.021189
0.270743
0.281443
-0.061194
-0.050833
0.079528
0.048784
0.357415
0.328578
0.393633
0.365950
0.326436
0.401501
0.389696
0.389314
0.124690
0.004875
-0.171018
-0.101711
0.140234
0.113272
-0.061585
-0.269486
0.042939
0.042404
0.050230
-0.229817
-0.234465
-0.025986
0.154709
0.393937
0.215804
0.133687
0.240606
0.249587
0.190811
-0.224805
-0.361141
-0.016348
-0.179777
0.077053
0.112379
0.204048
0.247434
0.287444
0.317835
0.338131
0.342889
0.353045
0.375831
0.409209
0.438731
0.454090
0.436300
0.360773
0.371248
0.116720
0.023706
-0.275984
-0.243506
-0.378900
-0.402196
-0.326270
-0.331801
-0.231132
0.001577
0.153286
0.312673
0.425589
0.445294
0.444482
0.209268
0.188482
-0.068922
-0.096899
-0.122746
-0.065935
0.181089
0.260523
0.000693
0.026316
0.019170
0.045373
0.132591
0.395270
0.250978
0.205227
0.199568
-0.050742
-0.218010
-0.497282
-0.389193
-0.404009
-0.133763
0.037630
-0.044152
0.129919
0.083629
0.025789
-0.065751
0.182990
0.081586
0.203327
0.092774
0.133454
0.039068
0.050029
-0.097943
-0.032882
-0.082144
-0.114518
-0.181756
-0.172796
0.114188
0.154694
0.194039
0.231109
0.084514
0.260251
0.289159
-0.034609
-0.006112
-0.199972
-0.211385
-0.063686
-0.024570
-0.096906
-0.106235
-0.053395
0.013080
0.032087
0.024328
0.040924
0.057726
0.074004
0.085919
0.106643
0.112928
0.136128
0.172444
0.154740
0.050686
0.028858
0.046623
0.052508
-0.068071
-0.011533
-0.015850
0.002568
-0.025277
-0.045054
-0.032219
-0.117652
-0.084894
-0.069801
-0.124381
-0.076281
-0.043739
-0.114812
-0.042703
-0.031481
-0.027651
0.052028
-0.074161
0.046545
0.005576
-0.064761
0.102488
0.042037
0.089248
0.012537
0.039181
0.111713
0.040166
0.103509
0.188064
0.107449
0.046998
0.081566
0.069951
-0.060442
0.027407
0.007196
0.068700
0.045156
0.101786
0.112390
0.113396
0.033426
0.073925
0.028667
0.034378
0.024420
0.073406
0.071128
0.075159
0.113586
0.103828
0.052540
0.052482
0.030006
0.039047
0.021152
0.049230
0.051230
-0.040554
-0.006961
0.018183
-0.059519
0.073739
0.106522
0.125460
0.069971
0.035854
0.085412
0.022498
0.008325
0.063719
0.000612
0.002959
0.012132
-0.006088
-0.112680
-0.078207
-0.068703
-0.113613
-0.039567
-0.072717
-0.128595
-0.065706
-0.071987
-0.113062
-0.056835
-0.022561
-0.085696
0.004663
0.014562
-0.022919
-0.032138
0.046923
-0.034103
0.021623
0.012865
-0.050209
-0.020060
-0.010348
-0.001436
0.010456
-0.019313
-0.088462
0.080361
-0.019040
-0.024377
0.076034
0.050237
0.083332
0.159256
-0.007544
0.017135
0.138181
0.026250
0.131284
-0.030608
-0.070421
-0.096827
-0.053206
-0.035751
-0.012737
-0.102194
-0.037307
-0.052615
0.080795
-0.142330
-0.221639
-0.340755
-0.438884
-0.385277
-0.349029
-0.307764
-0.309985
-0.303421
-0.239027
-0.110348
0.004195
-0.199182
-0.292395
-0.005244
0.216533
0.166817
0.104822
0.123581
0.263247
0.225685
0.209580
0.099112
0.053249
0.101805
0.041180
0.071171
0.117312
0.044367
-0.026695
-0.057631
-0.055638
-0.056720
-0.061511
-0.055527
-0.047921
-0.027344
-0.002534
0.020294
0.048484
0.060044
0.087583
0.093893
0.076785
-0.026590
-0.105250
-0.149004
-0.156049
-0.127230
0.091245
0.260508
0.064362
0.191673
0.059525
0.195070
-0.130669
-0.198459
-0.280740
-0.398774
-0.112204
0.090336
-0.145102
0.007268
0.060908
0.053306
0.014084
0.005579
0.018550
0.002599
-0.035022
-0.055801
-0.103830
-0.123621
-0.124001
-0.138562
-0.151216
-0.089078
-0.127705
-0.106831
-0.046734
-0.056750
-0.022565
-0.001561
-0.010073
0.018295
0.045163
-0.016819
0.069880
0.114306
0.074621
0.058950
0.099171
0.133512
0.099038
0.115500
0.165139
0.195934
0.147297
0.118948
0.076781
0.126207
-0.011267
0.033744
0.092082
0.053263
0.053787
0.098340
0.080437
0.061330
0.033719
0.063265
0.113168
0.091642
0.065476
0.059256
0.077796
0.053143
0.028591
0.018612
0.064798
0.033519
0.032990
0.055293
0.063270
0.064072
0.020329
0.079626
0.088492
0.022636
0.102400
0.082826
0.118469
0.171398
0.136148
0.098437
0.100608
0.020540
0.087218
-0.023744
-0.065851
-0.035132
-0.010698
-0.010097
0.039003
-0.070286
-0.071224
-0.031247
-0.040923
-0.024042
-0.041652
-0.023522
-0.025148
-0.071149
-0.038894
-0.031274
-0.068009
-0.002228
0.014036
-0.015031
-0.026045
0.006986
-0.025322
0.009015
0.061326
-0.021964
-0.016388
0.035003
-0.031991
-0.010443
0.017757
0.034714
0.069538
-0.007309
0.043363
0.121414
0.070003
0.135177
0.060680
0.094844
0.051191
0.217176
0.266265
0.139483
-0.113198
-0.047512
-0.034853
-0.019863
-0.048704
-0.177327
-0.182088
-0.307905
-0.384100
-0.397582
-0.368092
-0.217144
-0.232761
-0.149456
-0.303128
-0.319750
-0.149415
-0.068492
0.003046
-0.140819
-0.130638
-0.129127
-0.019495
0.153601
0.287963
0.182339
0.183596
0.218753
0.147049
-0.030958
-0.102097
-0.348466
-0.334681
-0.127586
0.018267
0.050672
0.176127
0.149319
0.240317
0.187717
0.101108
0.224822
0.146903
0.090083
0.000549
0.069656
0.062647
0.059061
0.031843
0.034557
-0.024752
-0.042120
-0.068028
-0.141548
-0.160461
-0.171237
-0.199765
-0.179704
-0.147357
-0.179112
-0.146644
-0.086621
-0.068336
0.003129
0.005909
-0.005458
-0.032880
0.010497
-0.013564
0.035876
0.104472
0.035068
0.040164
0.074510
0.096860
0.113341
0.144332
0.172521
0.122015
0.135737
0.119252
0.061681
0.063277
0.018918
0.048333
0.064653
0.018429
0.108316
0.051377
0.045959
0.056258
0.049637
0.023913
0.079202
0.004434
0.032653
0.014169
0.033027
0.031839
0.049489
0.010108
0.031238
0.019774
0.002522
0.009470
0.011842
0.017063
-0.025174
-0.016112
-0.024091
0.016759
0.065446
0.099195
0.102212
0.198620
0.163097
0.131691
0.115724
0.001510
0.040644
-0.007656
-0.066202
-0.049001
-0.064162
-0.075880
-0.098888
-0.123917
-0.090580
-0.087736
-0.086134
-0.080763
-0.057724
-0.047566
-0.066104
-0.103249
-0.078308
-0.082753
-0.079365
-0.060039
-0.028560
-0.035315
-0.067976
0.016572
-0.065278
-0.008387
0.048646
-0.050202
0.014782
0.038043
0.014650
0.055960
0.097615
0.064055
0.107879
0.052185
0.135928
0.170865
0.162213
0.153287
0.110237
0.160678
0.274392
0.121974
0.191603
-0.022262
0.114977
-0.166242
-0.065782
-0.045065
-0.039557
-0.156154
-0.114423
-0.181872
0.027716
-0.088571
-0.091037
-0.230250
-0.070901
-0.013604
-0.030778
0.084071
-0.119927
-0.126277
-0.106235
-0.085845
-0.083340
-0.073423
-0.057526
-0.034346
-0.012818
0.007325
0.021317
0.038703
0.062762
-0.044036
-0.097962
0.061252
0.030105
-0.195644
-0.021044
0.093993
-0.004844
0.049879
0.165158
0.272109
0.316987
0.132006
0.068756
0.171710
0.042091
-0.180906
-0.221071
-0.245919
-0.288184
-0.239710
-0.185133
0.073681
0.231065
0.240445
0.356975
0.282557
0.091114
-0.015966
-0.080506
-0.160015
-0.134611
-0.036513
-0.129793
-0.221381
-0.256134
-0.398209
-0.441075
-0.503123
-0.344726
-0.351823
-0.110037
0.139608
0.282605
0.208529
0.061699
0.006181
-0.050715
-0.057512
0.058087
0.208631
0.351870
0.338475
0.183793
0.136973
-0.022789
0.172293
0.347051
0.343494
0.273419
0.405444
0.306102
0.262751
0.415946
0.407859
0.328515
0.390689
0.237391
0.443884
0.072542
0.273976
0.238778
0.323914
0.370176
0.397303
0.282833
0.322407
0.366868
0.301744
0.445893
0.332447
0.117589
0.184132
0.038049
0.027526
-0.031364
-0.045726
0.102053
0.317109
0.328535
0.389992
-0.192743
-0.486622
-0.499383
-0.475686
0.008197
0.202065
0.131301
0.164491
0.136544
0.123204
0.026663
-0.077623
-0.180138
-0.185331
-0.161649
-0.126871
-0.237658
-0.123344
-0.039218
0.076375
0.101784
0.163491
0.278216
0.084089
0.119750
-0.191314
-0.015621
-0.099296
-0.180141
0.082845
0.040781
0.133433
0.185626
0.250284
0.293261
0.338915
0.346505
0.360261
0.402899
0.424655
0.439243
0.429785
0.413349
0.362843
0.249761
0.095858
-0.006427
-0.189257
-0.252087
-0.257687
-0.290170
-0.244428
-0.129564
-0.089688
0.038794
0.210114
0.343599
0.425181
0.446152
0.383436
0.221699
0.128790
0.041223
-0.097690
-0.117652
-0.038813
0.199187
0.385335
0.115882
0.020798
0.047451
0.117095
0.233111
0.386476
0.301828
0.225938
0.193903
0.083205
-0.341609
-0.412712
-0.439212
-0.401496
-0.009282
-0.181618
-0.017871
-0.013355
-0.130824
0.063066
0.058862
0.057334
0.018654
0.077128
0.172118
0.336944
0.353563
-0.023041
0.180867
0.269908
0.089325
-0.034334
-0.138287
-0.198581
-0.189395
-0.149269
-0.014327
0.234956
0.276143
0.354332
0.269700
0.066737
-0.023090
-0.062371
-0.102935
-0.053516
-0.011022
-0.101840
-0.193550
-0.165960
-0.303978
-0.300419
-0.371580
-0.239740
0.328993
0.254167
0.110044
0.017822
-0.036804
0.060758
0.021830
0.184322
0.358019
0.377737
0.411605
0.268961
0.227405
0.238537
0.477451
0.441488
0.376754
0.310877
0.393258
0.430280
0.409217
0.414953
0.376639
0.359049
0.223597
0.110519
0.273472
0.332807
0.114342
0.134220
0.400462
0.335802
0.412222
0.402386
0.444582
0.366307
0.231305
0.170865
0.150342
0.124318
0.057071
0.076762
-0.013613
0.015585
0.122139
0.295908
0.353921
0.235878
-0.115301
-0.259297
-0.449126
-0.507017
-0.559469
-0.502585
0.173505
0.228495
0.230948
0.205253
0.199952
0.193474
0.171189
0.107806
0.025052
-0.059259
-0.094956
-0.178095
-0.136282
-0.073748
0.100710
0.029848
0.005283
-0.093855
0.303036
0.229139
0.148017
0.204299
0.275209
0.137299
0.284075
0.296070
0.142449
-0.353538
-0.007498
-0.038073
0.140538
0.102195
0.138529
0.172582
0.140986
0.178384
0.196960
0.129407
0.160586
0.127003
0.047867
-0.076666
-0.187290
-0.184800
-0.118664
-0.011695
0.136154
0.267122
0.215873
0.210595
0.204281
0.150758
0.076185
-0.141203
0.076737
0.061867
0.050198
0.019893
-0.009963
-0.045466
-0.086131
-0.175762
-0.209824
-0.237207
-0.224300
-0.206558
-0.216623
-0.227334
-0.172201
-0.091776
-0.069856
-0.036406
0.027071
0.017154
0.004680
-0.034995
-0.000790
0.070545
0.028070
0.035645
0.051315
0.089711
0.114301
0.151403
0.175046
0.100198
0.110491
0.086414
0.073118
0.012651
0.019432
0.025628
0.048667
0.013746
0.088245
0.042484
0.060350
0.016149
0.049312
0.015472
0.044364
0.029675
0.090169
0.015774
0.008459
-0.013554
0.025539
-0.024016
-0.009691
0.003007
-0.001727
-0.005670
-0.006691
0.012159
0.008159
-0.015762
-0.027911
0.007883
0.013327
0.082614
0.085874
0.152133
0.095680
0.088236
0.060867
0.005325
0.028365
-0.014059
-0.085082
-0.091181
-0.067996
-0.085169
-0.116879
-0.133852
-0.141908
-0.132800
-0.110934
-0.147886
-0.087498
-0.117743
-0.115706
-0.094258
-0.065148
-0.052798
-0.041269
-0.026858
-0.071488
-0.070897
-0.074303
0.004813
0.042484
0.108670
0.002799
0.077598
0.011963
-0.022178
0.030010
0.069376
0.042544
0.046167
0.084942
0.071432
0.139954
0.193611
0.206079
0.209375
0.195518
0.253374
0.250795
0.185002
0.103563
-0.215318
0.003618
0.026140
-0.139519
-0.132082
-0.122870
-0.092224
-0.081386
-0.059499
-0.033545
-0.007223
0.004192
0.026135
0.055312
0.056483
-0.146359
-0.022832
0.046531
0.118765
0.163163
0.227346
0.279717
0.320140
0.351776
0.375311
0.405649
0.424621
0.425225
0.409622
0.322738
0.220729
0.103244
0.016993
-0.081167
-0.204034
-0.175210
-0.122630
-0.051070
0.055730
0.203194
0.358576
0.426153
0.418355
0.335521
0.218345
0.147998
0.065368
-0.045120
-0.047944
0.007211
0.178033
0.348632
0.151709
0.101021
0.041774
-0.356697
-0.125844
0.103939
0.153473
0.178949
0.194337
0.263897
0.189526
0.273309
0.290158
0.133135
0.129465
-0.006462
-0.114169
-0.142499
-0.137156
-0.082700
0.002922
0.109776
0.188020
0.220689
0.222366
0.185575
0.148629
0.095571
-0.007802
-0.074712
-0.149054
-0.064645
-0.183545
0.042485
-0.046484
-0.309362
0.117126
0.132885
0.141526
0.161445
0.179180
0.222589
0.258137
0.300849
0.347191
0.373415
0.399208
0.408971
0.390712
0.331523
0.169642
0.077283
-0.012606
-0.085246
-0.104857
-0.099618
-0.100952
-0.062471
0.027369
0.148033
0.318417
0.389112
0.298995
0.259734
0.183225
0.096077
0.017773
-0.013792
0.028231
0.169796
0.293875
0.120628
0.194516
0.310900
0.405465
0.365961
0.163327
0.217769
0.299708
0.251562
0.236338
0.182086
0.176272
0.101610
0.023301
-0.193998
-0.335547
-0.430425
-0.374675
-0.222285
-0.230315
-0.176384
-0.186732
-0.154018
-0.164500
-0.025851
-0.044780
-0.051687
-0.046894
-0.041830
-0.028198
-0.014738
0.006339
0.029275
0.044916
0.061794
0.073717
0.060554
0.029364
-0.027879
-0.075783
-0.227138
-0.268931
-0.270308
-0.279683
-0.252894
-0.288820
-0.183747
-0.066806
-0.021433
-0.002008
0.040361
0.011848
-0.001963
0.013116
0.025686
0.014014
-0.006169
-0.005745
0.053977
0.105763
0.096205
0.064559
0.054571
0.086210
0.021819
0.067957
-0.003396
-0.004215
0.033133
0.024123
-0.011624
0.049635
0.026727
0.054433
0.024620
0.028379
0.002371
0.027766
0.003569
0.015489
-0.011893
-0.008040
-0.014813
0.007830
0.000351
-0.023308
-0.027859
-0.048361
-0.062036
-0.089974
-0.050588
-0.045550
-0.051632
-0.059032
-0.022211
-0.001976
0.067834
0.081787
0.116427
0.051972
0.050413
0.015012
-0.011416
-0.033272
-0.023799
-0.086390
-0.094547
-0.124682
-0.129434
-0.112051
-0.175066
-0.181276
-0.157534
-0.146175
-0.157157
-0.141290
-0.097502
-0.129456
-0.081880
-0.105612
-0.118804
-0.113455
-0.062434
-0.057344
-0.111235
-0.051876
-0.045359
-0.006168
-0.003493
0.000619
0.013005
0.079154
-0.016036
0.021033
-0.002964
0.079988
0.083487
0.078625
0.129582
0.124414
0.181678
0.204985
0.216148
0.227685
0.275173
0.328675
0.272104
0.278092
-0.174362
-0.346919
-0.133173
0.164237
-0.248700
-0.203770
-0.051812
0.293044
0.264192
0.113780
0.032754
-0.013780
0.091618
0.190943
0.200824
0.264666
0.292986
0.335540
0.420939
0.414444
0.313013
0.277671
0.334763
0.346497
0.373646
0.415433
0.376009
0.418541
0.411211
0.346207
0.234084
0.282821
0.163556
0.145462
0.066302
0.277302
0.254561
0.345432
0.382709
0.430815
0.411257
0.363644
0.353558
0.405173
0.420183
0.396918
0.351515
0.274175
0.317974
0.419050
0.222881
0.312660
0.381052
0.407036
0.310888
0.207675
0.293466
0.206846
0.153219
0.161040
0.034218
0.096939
0.101088
0.153154
0.288127
0.319931
0.201192
-0.073914
-0.173092
-0.218753
-0.456493
-0.472533
-0.569009
-0.564626
-0.486347
0.175885
0.244748
0.295240
0.337174
0.274613
0.235688
0.240429
0.183546
0.132280
0.079831
0.012842
-0.082020
-0.166541
-0.122288
0.011064
0.035816
0.151106
0.140652
0.175728
0.273377
0.302326
0.271462
0.089680
-0.061599
-0.120811
-0.078068
-0.114776
-0.061568
0.254951
-0.052046
-0.073193
-0.089874
-0.010037
0.099872
0.231554
0.277482
0.325593
0.373937
0.395319
0.377021
0.272705
0.242133
0.186452
0.126857
0.122516
0.058536
0.055933
0.145808
0.215672
0.227106
0.211607
0.192196
0.170155
0.153918
0.262367
0.326852
0.306497
0.281126
0.185514
0.132267
0.136653
0.136490
0.084064
-0.038187
-0.197922
-0.132790
-0.252236
-0.258810
-0.173389
-0.142906
-0.248587
-0.053106
-0.085520
-0.177422
-0.212535
-0.159524
-0.176272
-0.077346
0.128570
0.101077
0.216714
0.287073
0.305689
0.257027
-0.218311
-0.073348
-0.052864
-0.024421
0.028299
0.067534
0.025570
0.092119
0.214457
0.431041
0.392925
0.262434
0.059774
-0.042005
-0.115967
-0.151130
-0.135429
-0.087085
0.031504
0.185116
0.287110
0.350669
0.319560
0.151587
0.039224
-0.029433
-0.029866
-0.023536
-0.030516
-0.064837
-0.135157
-0.196435
-0.195673
0.138921
0.181377
0.192420
0.179041
0.153928
0.118473
0.097372
0.027107
-0.006822
-0.008176
-0.012324
-0.017447
-0.008999
-0.002103
0.000546
0.022158
0.032997
0.079039
0.090502
0.087840
0.081555
0.001144
-0.069325
-0.229789
-0.310147
-0.308748
-0.322756
-0.301175
-0.118824
-0.056176
0.036051
0.020331
0.056704
0.027349
0.011233
-0.005093
-0.021934
-0.046807
-0.068528
-0.017115
0.035401
0.004941
-0.006579
0.016205
0.025970
0.040368
0.033222
0.046477
0.001400
-0.007727
0.035689
0.028586
0.019671
0.026310
0.014171
0.050471
0.037060
0.020162
-0.010188
0.035585
0.004878
0.019750
-0.011224
-0.000465
-0.048712
0.002412
-0.048382
-0.093582
-0.053234
-0.055626
-0.077501
-0.083177
-0.074101
-0.057522
-0.067937
-0.065453
-0.047051
0.015620
0.027227
0.007809
-0.043858
-0.017335
0.009777
0.012235
-0.025664
-0.065303
-0.074679
-0.094933
-0.112351
-0.133443
-0.148429
-0.174226
-0.192672
-0.173134
-0.161976
-0.156779
-0.136837
-0.115111
-0.137611
-0.117909
-0.126635
-0.083812
-0.082052
-0.074185
-0.088104
-0.047920
-0.052051
-0.066605
-0.062138
0.006475
0.024380
0.032060
0.051549
0.048213
0.055640
0.039323
0.081462
0.071645
0.118943
0.147801
0.148826
0.177068
0.183640
0.207317
0.242663
0.287223
0.325453
0.275527
0.279885
0.217668
-0.127529
-0.168263
-0.173345
0.119239
0.002610
0.029450
0.081387
0.123182
0.352711
0.367968
0.350705
0.328160
0.319066
0.367380
0.347175
0.373807
0.407665
0.399998
-0.067645
-0.028962
-0.006672
0.014298
0.088209
0.137595
0.219967
0.267282
0.312632
0.337870
0.332946
0.343138
0.322847
0.281997
0.150121
0.252057
0.093591
0.085414
0.077668
0.125172
0.239639
0.206232
0.257180
0.172214
0.151420
0.176058
0.200030
0.191368
0.260245
0.225065
0.243036
0.201378
0.181759
0.138292
0.123491
0.098081
0.043914
-0.112134
-0.300447
0.020124
0.106663
0.222216
0.305858
0.271969
-0.035180
-0.094839
-0.137891
-0.104027
-0.035518
0.061112
0.183001
0.263430
0.337070
0.299039
0.159710
0.044764
-0.006619
0.031323
0.010224
-0.062902
-0.086454
-0.177310
-0.202773
-0.203864
0.329312
0.264968
0.096823
-0.036205
-0.053708
-0.055125
0.010852
0.001067
0.058921
0.044937
0.091681
0.136998
0.150626
0.158457
0.142299
0.105051
0.078780
0.093386
0.059885
0.111654
0.151937
0.270640
0.273044
0.190362
-0.006121
-0.141823
-0.184189
-0.230907
-0.421326
-0.470287
-0.564830
-0.571430
-0.574759
-0.508743
0.209328
0.261312
0.318336
0.355319
0.278307
0.277808
0.262506
0.216932
0.192314
0.144871
0.088034
-0.015659
-0.042516
-0.062729
0.047910
0.043227
0.028639
0.021557
0.023182
0.040859
0.072005
0.131110
0.142822
0.129928
0.060501
-0.020071
-0.127579
-0.358873
-0.399723
-0.397189
-0.384541
-0.051459
0.064602
0.056993
0.046884
0.046191
0.028726
0.023070
-0.017921
-0.061725
-0.092101
-0.055655
-0.047866
-0.126936
-0.022788
-0.121248
0.065889
0.068436
0.057380
0.028905
0.034604
0.045828
0.050865
0.059306
0.045974
0.074585
0.032455
0.013489
0.031621
0.042628
0.011920
0.011783
0.031726
-0.008788
-0.049157
0.012276
-0.053610
-0.049967
-0.023325
-0.048184
-0.057282
-0.039380
-0.057698
-0.061484
-0.067688
-0.063625
-0.085981
-0.102629
-0.081823
-0.052372
-0.018641
-0.018371
-0.067121
-0.140189
-0.159281
-0.068805
-0.036834
-0.055922
-0.072382
-0.095702
-0.109125
-0.124755
-0.139297
-0.133280
-0.162874
-0.187733
-0.186645
-0.183374
-0.194275
-0.193720
-0.184998
-0.159005
-0.171603
-0.158627
-0.146274
-0.133996
-0.097464
-0.103013
-0.109380
-0.120949
-0.091587
-0.086798
-0.072482
-0.082428
-0.048432
-0.054852
-0.003631
0.044926
0.015405
0.001889
0.026161
0.020565
0.055406
0.067873
0.118147
0.100422
0.158760
0.162826
0.191239
0.182653
0.230268
0.231742
0.291097
0.336961
0.336073
0.270710
0.190488
0.021255
0.023191
-0.006635
0.018830
0.086782
0.123275
0.140792
0.218223
0.240599
0.293893
0.301792
0.378083
0.345918
0.349424
0.271279
0.250852
0.168855
0.109286
0.127819
0.122749
0.194524
0.247412
0.200021
0.196113
0.196461
0.205016
0.174256
0.175102
0.225952
0.256270
0.273899
0.236359
0.227545
0.209350
0.187039
0.159406
0.144456
0.116175
0.106079
0.042610
-0.017825
-0.192736
-0.022933
-0.271159
-0.089499
-0.235625
-0.227667
-0.136415
-0.167859
-0.164940
-0.087953
-0.228005
-0.210498
-0.199063
-0.232112
-0.149931
-0.074785
-0.003395
-0.103913
-0.151916
-0.193657
-0.173060
-0.188350
0.121043
0.050443
0.218025
0.166637
0.177540
0.123607
0.187503
0.216373
0.242625
0.281490
0.323858
0.355403
0.376470
0.376697
0.354588
0.275430
0.160239
0.083285
-0.170248
-0.060627
-0.074986
0.134847
0.182851
0.216893
0.270019
0.299204
0.314864
0.342713
0.278406
0.264717
0.207812
0.117433
0.148639
0.099941
-0.096656
-0.074787
0.105422
0.142428
0.277683
0.222217
0.120789
0.072472
0.041014
0.066079
0.120159
0.172011
0.276774
0.289387
0.358762
-0.054062
0.039473
0.170516
0.223900
0.200278
0.224872
0.104319
0.105197
0.107376
0.138317
0.051830
0.108969
0.042843
0.092737
0.127452
0.135066
0.123304
0.104181
0.078615
0.056213
0.065217
0.164090
0.256614
0.247500
0.183447
0.029444
-0.074793
-0.172558
-0.194034
-0.299051
-0.381068
-0.282767
-0.522699
-0.567866
-0.583191
-0.578795
-0.520733
0.115814
0.253196
0.300862
0.314189
0.374898
0.385156
0.391058
0.382844
0.368927
0.388332
0.377983
0.367731
0.360238
0.332904
0.342562
0.050225
0.047539
0.052666
0.071270
0.133571
-0.025797
-0.407071
-0.337962
-0.317734
-0.352493
0.021181
0.116555
0.096865
0.072894
0.034481
0.011779
-0.006570
-0.061194
-0.097507
-0.092503
-0.104223
-0.208026
-0.022762
-0.185986
0.066725
0.126004
0.069675
0.004704
0.040803
0.036021
0.028608
0.021851
0.034318
0.029409
0.068978
0.067353
0.020429
0.021210
0.051115
0.009582
-0.015184
0.003687
-0.031762
-0.018691
-0.015699
-0.087756
-0.037276
-0.029949
-0.023957
-0.064821
-0.027338
-0.051529
-0.048187
-0.082945
-0.079451
-0.098760
-0.104839
-0.091819
-0.060364
-0.053410
-0.059050
-0.118029
-0.271546
-0.338688
-0.127687
-0.107957
-0.091631
-0.094033
-0.109884
-0.124360
-0.140027
-0.162721
0.211938
0.043293
0.036164
0.042081
0.083943
0.113676
0.191511
0.069677
-0.287305
-0.332073
-0.227581
-0.287419
0.057249
0.098690
0.071256
0.054290
0.028000
0.008901
-0.009495
-0.105159
-0.087506
-0.133017
-0.201838
-0.198678
-0.129031
-0.229107
0.095596
0.134144
0.056805
0.042566
0.011897
0.006725
0.006810
0.020031
0.029888
0.071239
0.107067
0.066436
-0.006134
0.020367
0.043405
0.051495
0.003055
0.033624
0.008301
0.024045
-0.022219
-0.035876
-0.050488
-0.031222
-0.049937
-0.035198
-0.000912
-0.036422
-0.033674
-0.067681
-0.120639
-0.119997
-0.079458
-0.076980
-0.075141
-0.089585
-0.130486
-0.333098
-0.358770
-0.231182
-0.190324
-0.134624
-0.129148
-0.130474
-0.126780
-0.160284
-0.187236
-0.181061
-0.074827
-0.064249
-0.172897
-0.126947
-0.067090
-0.043876
0.108378
0.191238
0.220367
0.167195
0.109326
0.075696
0.038754
0.121794
0.183137
0.244660
0.224720
0.288178
0.287254
0.346030
0.306006
0.353836
0.337327
0.342068
0.326221
0.365843
0.396090
0.379978
0.383855
0.390487
0.389572
0.384637
0.394180
0.358550
0.373678
0.069965
-0.099091
-0.098012
-0.048040
-0.101558
0.040524
-0.091431
-0.108677
-0.202674
-0.155424
-0.197315
-0.201484
-0.130388
-0.118631
0.026946
0.063601
0.118787
0.183277
0.219446
0.262016
0.265725
0.268167
0.244985
0.296917
0.201600
0.210298
0.127066
0.083212
-0.023592
-0.008844
-0.088156
-0.110918
-0.060071
-0.005702
0.079584
0.203375
0.233561
0.296610
0.262628
0.137845
0.046148
0.010787
0.034435
0.027707
-0.006499
-0.065087
-0.151398
-0.198866
-0.173311
0.138914
0.085573
-0.263223
-0.251052
-0.193662
-0.093021
-0.008322
0.008536
0.004979
-0.012583
-0.008798
-0.018513
-0.081124
-0.119346
-0.168454
-0.185901
0.034627
-0.205046
-0.173993
0.001257
0.110993
0.072872
0.029054
0.020680
-0.003233
0.006252
0.018667
0.022556
0.013749
0.049958
0.040368
0.014068
0.009887
0.052820
0.026098
0.018900
0.028899
-0.015149
-0.058991
-0.048435
-0.022282
-0.024953
-0.005597
-0.020777
-0.051792
-0.004021
-0.034645
-0.034774
-0.035369
-0.110669
-0.095368
-0.078576
-0.078286
-0.077951
-0.076124
-0.121196
-0.433923
-0.297893
-0.316382
-0.201249
-0.150419
-0.121093
-0.103925
-0.139974
-0.159132
-0.182042
-0.191754
-0.183197
-0.178391
-0.196746
-0.203907
-0.190730
-0.185876
-0.169751
-0.183252
-0.179550
-0.148549
-0.144395
-0.144127
-0.095441
-0.109207
-0.120802
-0.086573
-0.092520
-0.079520
-0.066218
-0.031230
-0.045612
0.018412
0.031558
0.033254
0.038711
0.055592
0.023759
0.113308
0.101969
0.090964
0.115090
0.132958
0.160329
0.168126
0.176746
0.216456
0.223853
0.260697
0.292100
0.325219
0.133712
0.030391
0.377642
0.318728
0.322235
0.322378
0.246177
0.221108
0.142289
0.170989
0.191729
0.264116
0.151236
0.065845
-0.027007
-0.094795
-0.122987
-0.272376
-0.363272
-0.335856
-0.384438
-0.536134
-0.567487
-0.575045
-0.551724
-0.472759
0.127979
0.226291
0.288844
0.297587
0.308243
0.302853
0.293422
0.241577
0.158428
0.175653
0.062603
0.037245
0.005234
-0.015710
0.255592
0.236665
0.219859
0.008036
0.151092
0.231312
0.235266
0.202037
0.268305
0.299235
0.333841
0.353165
0.349271
0.326943
0.267498
0.199596
0.086576
-0.211291
-0.202951
-0.189003
-0.193573
-0.178514
-0.181243
-0.169534
-0.151681
-0.143443
-0.139261
-0.093495
-0.086050
-0.116267
-0.120654
-0.114867
-0.066195
-0.065726
-0.017477
-0.039459
0.016095
0.037627
0.026708
0.050269
0.054367
0.055926
0.078085
0.077614
0.097109
0.086269
0.115560
0.111458
0.123276
0.151023
0.172974
0.204793
0.249608
0.299148
0.298831
-0.184841
-0.143500
-0.113964
-0.042311
0.035461
0.036909
0.213773
0.187460
0.147269
0.107631
0.067878
0.096074
0.091876
0.172481
0.226506
0.231260
0.254405
0.262982
0.293955
0.321926
0.338426
0.327057
0.334547
0.344052
0.352282
0.368518
0.245825
0.231308
0.207735
0.189161
0.167769
0.161720
0.148241
0.128745
0.097724
0.062591
0.018884
-0.110131
-0.156224
-0.203977
0.082360
0.202111
-0.044293
-0.059622
-0.082600
-0.081924
-0.095513
-0.052292
0.045536
-0.052241
-0.106295
-0.158403
-0.179649
-0.189424
-0.172450
0.226886
0.159700
0.100857
0.092985
0.056752
0.087184
0.109007
0.142457
0.126161
0.114094
0.094866
0.067026
0.047977
0.019907
-0.020760
0.038565
0.044648
0.378257
0.371575
0.330488
0.306743
0.320149
0.314915
0.254680
0.206263
0.216052
0.163975
0.211016
0.180658
0.243186
0.255245
0.236837
0.212353
0.159315
0.060757
0.011134
0.127137
0.205528
0.190828
0.204827
0.283085
0.173801
0.205341
0.077488
0.023158
-0.040812
-0.098139
-0.211666
-0.339443
-0.451086
-0.554078
-0.570426
-0.579574
-0.540320
-0.338806
0.200767
0.255784
0.315966
0.310051
0.302013
0.327494
0.271183
0.242134
0.255466
0.161834
0.190567
0.156752
0.102972
0.094648
0.055674
0.223410
0.222107
0.217726
0.218537
0.179852
0.173300
0.126651
0.114537
0.102878
0.097727
0.061736
0.041446
-0.084639
-0.153076
-0.102481
-0.363155
0.085678
-0.154451
-0.272400
-0.070445
-0.156659
-0.116444
0.374172
0.376037
0.250075
0.277915
0.313454
0.330136
0.328167
0.292401
0.254152
0.187482
0.114172
0.096054
0.077277
0.055958
0.118402
0.143748
0.193517
0.224365
0.275596
0.278272
0.312911
0.325602
0.383073
0.311831
0.247241
0.256769
0.194531
0.217678
0.123022
0.164791
0.177509
0.202674
0.195310
0.216143
0.245379
0.172753
0.177727
0.163882
0.187336
0.228509
-0.076635
-0.086002
-0.026462
0.023010
0.101399
0.188404
0.227608
0.274198
0.231207
0.123841
0.037989
0.012994
-0.016658
-0.070260
-0.103927
-0.155281
-0.152423
-0.003635
0.394609
0.391265
0.393468
0.356392
0.315792
0.326994
0.313187
0.235834
0.270031
0.227292
0.218064
0.213924
0.187125
0.142772
0.208123
0.254029
0.288329
0.303334
0.299469
0.276466
0.221517
0.179395
0.154151
0.111393
0.092041
0.079069
0.121241
0.086536
0.197505
0.235138
0.229460
0.230779
0.283400
0.288838
0.260580
0.282970
0.307743
0.252966
0.208933
0.224209
0.212682
0.167148
0.172939
0.135320
0.177534
0.155635
0.173518
0.156357
0.230328
0.154351
0.178232
0.165407
0.197269
0.239830
0.013855
0.100463
0.142325
0.149409
0.187059
0.206283
0.200846
0.183397
-0.157585
-0.145261
-0.140461
-0.068713
0.009900
0.061746
0.002055
0.137887
0.107082
0.097010
0.056608
0.067492
0.150084
0.186647
0.200017
0.238489
0.237924
0.262010
0.289194
0.317634
0.344540
0.348401
0.346948
0.355881
0.361721
0.372254
0.162137
0.203944
0.207312
0.197139
0.212538
0.116544
0.221806
0.166019
-0.005712
-0.051491
-0.055535
-0.094164
-0.292357
-0.446066
-0.505759
-0.561174
-0.570257
-0.526989
-0.534621
-0.418360
0.286075
0.304585
0.319791
0.293566
0.304168
0.301128
0.311147
0.308173
0.193226
0.221034
0.203158
0.187599
0.142071
0.136183
0.116844
0.113844
-0.208063
-0.207782
-0.198756
-0.193829
-0.190916
-0.159182
-0.172883
-0.144727
-0.145275
-0.119107
-0.093888
-0.110868
-0.117519
-0.122146
-0.071588
-0.019914
-0.010788
-0.000706
0.044373
0.030617
0.050195
0.065075
0.024047
0.075091
0.086683
0.089074
0.081807
0.063856
0.097731
0.106840
0.137577
0.195325
0.135178
0.187581
0.226431
0.271069
0.341513
0.013012
-0.049418
-0.103041
-0.145888
-0.163007
-0.145365
-0.091081
-0.136587
0.249129
0.204879
0.144192
0.165482
0.137707
0.110893
0.097627
0.067615
0.017791
-0.012421
-0.055019
-0.103011
0.116023
0.135914
0.099126
0.056655
0.015478
0.066850
0.101216
-0.024036
-0.018059
-0.046281
-0.091772
-0.127184
-0.148764
-0.142590
-0.121326
-0.005570
0.052377
0.037939
0.023999
0.042617
0.120252
0.176235
0.091911
0.117866
0.104493
0.024479
0.023162
-0.045489
-0.043009
-0.026930
0.064945
0.114080
0.158589
0.212867
0.234380
0.186638
0.162369
0.137278
0.075715
0.062949
0.067450
0.037180
0.038558
-0.020497
-0.103144
-0.143391
0.378717
0.389064
0.385018
0.394960
0.403430
0.373873
0.151099
0.091679
0.040671
0.048090
0.036783
0.035365
-0.286711
-0.328837
-0.078359
0.073351
-0.015434
0.052321
0.044516
0.016437
0.004028
0.031405
0.066247
0.032771
0.022196
0.038538
0.057498
0.084728
0.045146
0.081879
0.050109
-0.002510
0.014923
0.060855
-0.034112
-0.018803
-0.042757
-0.012896
-0.018601
-0.015084
-0.033239
0.014986
-0.025430
-0.009127
-0.054679
-0.082214
0.218945
0.210180
0.205441
0.197087
0.191306
0.200147
0.191935
0.214979
0.164703
0.127830
0.011089
-0.011121
-0.047494
-0.096793
-0.168896
-0.329965
-0.479745
-0.518319
-0.577223
-0.583264
-0.568695
-0.300576
-0.106998
0.266055
0.317889
0.307955
0.301108
0.301055
0.254598
0.313707
0.293823
0.252767
0.231817
0.230891
0.211065
0.192181
0.159461
0.150561
0.158870
0.189392
0.134179
-0.022643
-0.040778
-0.065609
-0.102829
-0.141520
-0.172228
-0.234823
-0.063355
-0.016500
-0.100732
-0.012446
0.046974
0.068635
0.104106
-0.254871
-0.342605
-0.205367
-0.160886
-0.106562
-0.059664
0.185810
0.166369
0.117637
0.162156
0.113391
0.128754
0.093603
0.064708
0.050296
0.026905
0.018565
-0.092407
-0.246670
-0.102161
-0.370446
0.127024
-0.048084
-0.295079
-0.145436
-0.139054
0.383011
0.355169
0.350799
0.306651
0.330203
0.302704
0.283747
0.297405
0.266019
0.219131
-0.159267
-0.146692
-0.121828
-0.095649
-0.041349
0.047709
0.088239
0.086103
0.126253
0.110505
0.078388
0.084571
0.128641
0.156156
0.138023
0.214488
0.213963
0.230299
0.253549
0.278677
0.292430
0.331366
0.347728
0.375064
0.381025
-0.224591
-0.214735
-0.186216
-0.172960
-0.170958
-0.159989
-0.151244
-0.131773
-0.156675
-0.156604
-0.143662
-0.142485
-0.125504
-0.132768
-0.077971
-0.111697
-0.110244
-0.121380
-0.086843
-0.069496
-0.020540
-0.016973
0.013801
0.048710
0.083435
0.086962
0.110993
0.099026
0.066222
0.076008
0.058045
0.058220
0.087646
0.076264
0.073466
-0.007887
0.042918
-0.043314
-0.011659
0.024207
0.089095
0.123793
0.145835
0.191391
0.198140
0.166862
-0.002283
-0.056929
-0.121563
-0.092669
-0.078266
-0.067849
-0.099126
-0.100872
-0.225664
-0.347343
-0.328859
-0.461774
-0.359130
-0.218350
-0.112162
-0.096499
-0.102517
-0.129655
-0.167449
-0.184091
-0.211067
-0.181227
-0.170352
-0.151844
-0.152248
-0.141532
-0.133294
-0.110258
-0.097583
-0.075049
-0.178064
0.380306
0.378820
0.228052
0.263175
0.281592
0.275681
0.250329
0.205195
0.193260
0.167271
0.123637
0.098708
0.146359
0.147303
0.181490
0.205070
0.276759
0.216198
0.271667
0.226740
0.271248
0.237319
0.260401
0.175027
0.202848
0.182408
0.168058
0.178042
0.165334
0.178425
0.141012
0.173678
0.149985
0.164297
0.198728
0.175520
-0.151503
-0.138017
-0.098178
-0.123132
-0.141687
-0.114613
-0.105653
-0.088787
-0.104017
-0.097832
-0.125355
-0.044559
-0.068315
0.009214
-0.002541
-0.000925
0.094436
0.066259
0.094990
0.080487
0.075139
0.071124
0.047202
0.044666
0.055982
0.070387
-0.176577
0.210501
0.203933
0.217290
0.231385
0.184074
0.188349
0.167674
0.205969
0.172140
0.233743
0.153216
0.057653
0.049274
0.004250
-0.034080
-0.101224
-0.168495
-0.245544
-0.369506
-0.431014
-0.514345
-0.570004
-0.551225
-0.542542
-0.370344
-0.002589
0.212621
0.316263
0.334985
0.341496
0.316733
0.322949
-0.111454
-0.273352
0.065972
0.048208
0.053217
0.030409
0.018931
0.042331
0.019429
0.013796
0.061468
0.040785
0.044532
0.074257
0.013302
0.075415
-0.001401
0.006297
0.019507
0.034212
-0.015925
-0.022923
-0.007117
-0.000797
0.031846
0.007577
-0.030208
0.003520
0.039790
0.013713
-0.026426
-0.206479
-0.183336
0.024807
0.045013
0.046169
0.046645
0.028300
0.023542
0.034574
0.037834
0.077174
0.036480
0.066323
0.048050
0.031982
0.047159
0.011505
-0.003702
0.044230
0.043268
-0.019096
-0.023393
0.009310
0.002319
0.024678
-0.000397
-0.040829
0.006698
0.032398
0.015347
0.021507
0.012428
-0.025371
-0.055527
-0.055156
-0.075392
-0.065903
-0.051390
-0.091122
-0.130303
-0.187879
-0.342287
-0.495661
-0.460215
-0.384796
-0.357804
-0.151297
-0.139157
-0.119391
-0.072879
-0.078543
-0.103127
-0.088259
-0.093963
-0.167115
-0.186754
-0.163243
-0.163634
-0.146327
-0.135784
-0.142913
-0.138340
0.379572
0.375781
0.360441
0.343581
0.382569
0.373901
-0.122560
-0.131690
-0.112934
-0.104020
-0.045393
-0.013650
0.021201
0.059433
0.057966
0.106283
0.136071
0.061905
0.041881
0.085096
0.110630
0.148037
0.192572
0.169163
0.195894
0.214790
0.242928
0.268139
0.293888
0.310444
0.358770
0.058757
0.026838
0.053698
0.088994
0.111131
0.132225
0.166177
0.144275
0.135820
0.122788
0.082384
0.041428
0.009523
-0.005655
-0.027140
0.207660
0.202102
0.192333
0.152369
0.091022
0.101362
0.021939
0.046981
0.034453
0.033165
-0.031593
-0.176338
-0.331093
-0.034910
0.317185
0.314358
0.257272
0.245455
0.227490
0.243813
0.229804
0.193522
0.177775
0.183382
0.159300
0.160457
0.220540
0.139394
0.105402
0.090199
0.042685
-0.004721
-0.018046
-0.032087
-0.052594
-0.152808
-0.187965
-0.353168
-0.314175
-0.305038
-0.497414
-0.553360
-0.550457
-0.416726
-0.323685
0.210371
0.303338
0.348071
0.323501
0.318580
0.340071
0.304980
0.249871
0.248910
0.233812
0.223690
0.217242
0.190597
0.173874
0.180297
0.196740
-0.001174
-0.101357
0.310338
0.268863
0.270434
0.255911
0.237336
0.263645
0.244960
0.228985
0.215456
0.190615
0.172414
0.161345
0.170356
0.183169
0.190661
0.205293
0.220719
0.257818
0.265052
0.267204
0.260581
0.232808
0.255327
0.239534
0.300382
0.257055
0.224690
0.205012
0.207347
0.196911
0.166895
0.181594
0.198722
0.132230
0.146745
0.132556
0.129336
0.169376
0.207483
0.152730
0.199151
-0.112598
-0.110374
-0.112013
-0.092458
-0.102385
-0.096558
-0.117792
-0.131512
-0.073876
-0.043008
-0.028188
0.002263
-0.011985
0.034587
0.042925
0.046009
0.100593
0.090402
0.083833
0.030987
0.030623
0.035603
-0.034559
-0.042738
-0.048126
-0.042096
-0.028659
-0.020873
-0.134161
-0.203707
-0.369653
-0.478967
-0.486746
-0.505057
-0.427011
-0.134897
-0.095777
-0.091154
-0.137578
-0.096458
-0.094354
-0.110115
-0.101476
-0.093533
-0.125114
-0.163643
-0.069320
-0.144307
-0.128276
-0.130583
-0.120508
-0.121844
-0.075361
-0.096703
-0.066367
-0.090032
-0.111894
-0.104980
-0.052289
-0.103022
-0.064573
-0.018929
0.004619
0.039716
0.055214
0.079343
0.100212
0.079778
0.055372
0.067487
0.114300
0.101950
0.141219
0.162477
0.156763
0.199433
0.217600
0.227671
0.244001
0.265487
0.298110
0.300391
0.280175
0.145331
0.149859
0.110894
0.110824
0.118957
0.098019
0.049108
0.104195
0.085807
0.211914
0.237239
0.243305
0.226047
0.210253
0.200118
0.140263
0.182697
0.188923
0.187608
0.220385
0.204144
0.214152
0.198091
0.253918
0.208212
0.220477
0.263022
0.268280
0.272512
0.192294
0.294396
0.286632
0.236794
0.226723
0.219479
0.177846
0.177906
0.162075
0.158628
0.131387
0.182644
0.119525
0.128897
0.191043
0.191200
0.101248
0.173680
0.096796
-0.003078
0.072601
0.079688
0.117251
0.129743
0.141812
0.124412
0.145761
0.122761
0.070846
0.054456
0.020029
0.017322
-0.038077
-0.068961
0.272254
0.258757
0.234584
0.236489
0.214105
0.189055
0.187545
0.156982
0.152445
0.163303
0.157134
0.144759
0.155337
0.096257
0.094848
0.023158
0.007188
-0.021088
-0.029160
-0.049853
-0.142357
-0.234070
-0.381169
-0.542657
-0.229021
-0.485039
-0.538274
-0.531396
-0.449253
-0.298734
-0.111508
-0.091452
0.012685
0.041832
0.152369
0.272409
0.327088
0.306605
0.332814
0.302417
0.288762
0.264467
0.268365
0.254363
0.232113
0.221836
0.221289
0.210770
0.208568
0.201996
-0.102162
-0.092940
-0.092907
-0.071688
-0.130361
-0.128652
-0.127358
-0.120388
-0.092596
-0.085788
-0.110431
-0.066239
-0.104850
-0.042751
-0.091704
-0.090412
-0.116285
0.078653
0.043369
0.076785
0.002615
0.054461
0.031650
0.023718
0.038536
0.050271
0.033782
0.025930
0.039599
0.021052
0.049095
0.028208
-0.008283
0.060490
0.030799
0.060921
-0.086335
-0.085167
-0.110889
-0.026022
-0.064328
-0.020261
-0.017483
0.011116
0.049850
0.046363
0.084412
0.052591
0.051778
0.113790
0.113424
0.120621
0.147434
0.135085
0.171265
0.059127
0.067591
0.106373
0.147849
0.147867
0.121084
0.149935
0.123404
0.038837
0.001564
0.005941
-0.003026
-0.087079
0.104742
0.118002
0.090417
0.088629
0.224269
0.236208
0.224548
0.219260
0.178608
-0.217655
-0.238652
-0.217978
-0.098555
-0.094333
0.117111
0.236868
0.233890
0.289971
0.306844
0.303325
0.260306
0.275720
0.276636
0.261194
0.237901
0.230227
0.226115
0.223802
0.213914
0.221024
0.219695
0.142826
0.061169
0.076199
0.085634
0.043155
0.070119
0.043528
0.094281
0.052842
0.066652
0.061765
0.031083
0.062665
0.066285
0.072178
0.069240
0.073439
0.053466
0.006347
-0.016512
-0.015817
-0.031264
-0.027183
-0.008371
0.024190
-0.084952
-0.223819
-0.455270
-0.281761
-0.458102
-0.495220
-0.345003
-0.122441
-0.099518
-0.108447
-0.103234
-0.129121
-0.051659
-0.048149
-0.060339
-0.005996
-0.009133
0.011770
0.029426
0.090740
0.131985
0.153001
0.275405
0.277664
0.227295
0.230705
0.217829
0.199277
-0.088816
-0.075646
-0.098739
-0.113828
-0.141015
-0.091261
-0.050503
-0.052559
-0.061345
-0.081872
-0.060378
-0.048077
-0.037705
-0.049438
-0.096476
-0.061905
-0.092751
-0.120004
-0.112844
-0.099902
-0.102945
-0.108366
-0.076643
-0.051470
-0.016915
0.026412
0.043441
0.055995
0.112983
0.141285
0.107606
-0.115952
-0.085819
-0.079492
-0.062292
-0.050981
-0.031760
-0.014492
0.013888
0.035096
0.063679
0.199954
0.174154
0.109597
0.097548
0.208985
0.068566
0.135306
0.182057
0.091543
0.154912
0.095061
0.075464
0.215271
0.211791
0.211711
0.209482
0.228698
0.248425
0.224058
0.229285
0.222060
0.223375
0.178840
0.228064
0.247042
0.243175
0.126083
0.104555
0.075306
0.015274
-0.017051
-0.036441
-0.051428
-0.068290
-0.078786
-0.088845
0.024200
0.102293
0.068827
0.110109
0.113730
0.123561
0.168017
0.163007
0.161687
0.142378
0.131899
0.138781
0.130043
0.118741
0.136992
0.074781
0.078475
0.052200
0.089093
0.009746
0.068312
0.065900
0.070676
0.056314
0.091407
0.065258
0.081107
0.081882
0.051046
0.063626
0.035737
0.044943
0.011470
-0.005313
-0.018924
-0.019272
-0.011725
-0.013624
-0.060373
-0.181881
-0.472816
-0.335988
-0.510453
-0.510405
-0.502785
-0.423606
-0.370468
-0.321209
-0.204146
-0.098567
-0.070475
-0.066537
-0.086282
-0.091771
-0.124094
-0.107857
-0.033347
-0.040711
-0.053389
-0.056778
0.224503
0.192339
0.222094
0.095386
0.148029
0.228711
0.272399
0.310294
0.303286
0.285638
0.259976
0.254621
0.249272
0.239621
0.243761
0.222782
0.216101
0.218017
0.223330
0.075566
0.106590
0.065897
0.058469
0.013222
-0.011163
-0.026134
-0.076096
-0.086399
-0.173332
-0.389962
-0.456228
-0.465973
-0.412204
-0.495379
-0.512422
-0.473060
-0.367742
-0.069596
-0.095222
-0.078201
-0.072425
-0.040504
-0.057153
-0.055791
-0.013508
-0.000964
0.036045
0.055635
0.083046
0.074101
0.104505
0.141971
0.140859
0.194729
0.149242
0.164567
0.144080
0.098255
0.119076
0.115604
0.270707
0.223297
0.263541
0.186940
0.159598
0.178900
0.170636
0.128313
0.090977
0.099840
0.134694
0.111134
0.075746
-0.016404
-0.031299
-0.015003
-0.064216
-0.075392
-0.129604
-0.086638
-0.108706
-0.091977
-0.082663
-0.073691
-0.101674
-0.094969
-0.083706
0.085570
0.062292
0.063455
0.073969
0.097555
0.115406
0.114020
0.123638
0.086188
0.067177
0.076848
0.069345
0.053068
0.077782
0.041486
0.022631
0.002443
-0.010306
-0.013713
-0.015381
-0.018153
-0.043733
-0.166962
-0.392972
-0.531808
-0.550457
-0.535369
-0.494770
-0.477167
-0.483773
-0.404838
-0.296012
-0.221806
-0.130785
-0.062274
-0.052030
-0.043082
-0.049126
-0.062721
-0.075016
-0.090777
-0.021220
-0.017948
-0.026768
-0.005788
0.236615
0.219109
0.258051
0.243485
0.259655
0.219665
0.245226
0.280598
0.229349
0.186510
0.222489
0.213340
0.176948
0.212692
0.152744
0.165039
0.064963
0.000796
-0.019893
-0.058078
-0.048717
-0.088227
-0.104257
-0.085836
0.034007
0.283752
0.268640
0.230786
0.232668
0.232408
0.244338
0.232076
0.202679
0.221479
0.130969
0.088992
0.085698
0.118968
0.134753
0.074912
0.091943
0.134523
0.098348
0.115387
0.101630
0.135913
0.076761
0.080182
0.073342
0.051238
0.013604
0.002982
-0.015004
-0.019211
-0.027554
-0.036434
-0.138606
-0.370223
-0.512644
-0.540557
-0.488845
-0.288092
-0.542104
-0.496382
-0.381226
-0.376929
-0.224240
-0.181508
-0.048792
-0.035914
-0.022745
-0.011122
-0.031353
-0.052602
-0.052812
-0.009487
0.002933
0.000297
-0.000374
-0.036570
-0.032766
0.228934
0.210866
0.189295
0.188730
0.168215
0.127572
0.157398
0.150319
0.143771
-0.364536
-0.506215
-0.518256
-0.553389
-0.281502
-0.144681
-0.212549
-0.403339
-0.485416
-0.096839
-0.079797
-0.064733
-0.055939
-0.087112
-0.039954
-0.049251
-0.026248
0.023739
0.025829
0.005412
0.036275
0.091158
0.092095
0.096104
0.121228
0.103859
0.159988
0.163523
0.196738
0.105127
0.097248
0.096932
0.078770
0.061804
0.209565
0.234534
0.226969
0.270542
0.217750
0.225487
0.262514
0.260871
0.160355
0.201082
0.214975
0.166404
0.171589
0.215072
-0.069290
0.000541
0.005825
-0.015148
-0.034492
-0.038073
-0.105760
-0.112951
-0.081709
-0.077002
-0.058854
-0.083259
-0.048873
-0.024547
-0.006332
0.118476
0.196787
0.253662
0.284686
-0.315507
-0.404500
-0.534909
-0.562247
-0.514291
-0.417960
-0.418483
-0.311979
-0.214866
-0.120405
0.011517
0.103689
0.160233
0.266974
0.238469
0.201911
0.063245
0.135576
0.076784
0.115821
0.143551
0.131414
0.130106
0.117926
0.121811
0.088187
0.134808
0.098792
0.090859
0.104451
0.066815
0.036124
0.017981
-0.018409
-0.022524
-0.033058
-0.028380
-0.152198
-0.349564
-0.443906
-0.512981
-0.474639
-0.340795
0.012092
0.052560
0.103963
0.126025
0.144531
0.136048
0.159313
0.114546
0.105488
0.087365
0.069931
0.044430
0.061003
0.077871
0.074643
0.056699
0.014840
-0.004658
-0.005248
-0.061214
-0.125263
0.229399
0.003097
0.016291
-0.011076
-0.010896
0.033450
-0.000342
-0.048325
-0.041857
-0.036585
-0.087291
-0.087268
-0.069318
-0.046176
-0.001294
-0.006774
0.011109
0.038364
0.030166
0.037829
0.029008
0.048112
0.075996
0.067234
0.124541
0.156372
0.112638
0.067871
0.090971
0.053588
0.035241
0.215262
0.233021
0.253336
0.225192
0.225171
0.211148
0.239557
0.177310
0.197557
0.175466
0.214524
0.221780
0.228009
0.067920
0.093538
0.109180
0.089750
0.188180
0.064409
0.072274
0.075922
0.191256
0.178145
0.177873
0.140415
0.152899
0.067202
0.113271
0.122925
0.133878
0.150007
0.182267
0.153535
0.156595
0.138930
0.134863
0.111258
0.115647
0.108842
0.088401
0.059398
0.032645
-0.016201
-0.046555
-0.045783
-0.103650
-0.145546
-0.328903
-0.480907
-0.541303
-0.521143
-0.517555
-0.413198
-0.526644
-0.250712
-0.171511
-0.187098
-0.031523
-0.027892
0.008856
0.008533
-0.013677
-0.004245
0.010812
-0.005791
0.028718
0.055694
0.030007
-0.259805
-0.253998
-0.202144
-0.155383
-0.073022
0.019024
0.081892
0.139491
0.199475
0.200433
0.224437
-0.182807
-0.163672
-0.166095
-0.112854
-0.023466
0.019876
0.079044
0.125797
0.161348
0.170031
0.195873
0.242235
0.219230
0.028080
0.054138
0.064815
0.061203
0.055850
0.031665
0.024389
0.019609
-0.008011
0.003945
-0.065222
-0.006226
0.214093
0.242762
0.208647
0.197803
0.150940
0.142635
0.170675
0.163870
0.173271
0.134776
0.177671
0.187089
0.147334
0.159576
0.080696
-0.092751
-0.085399
0.027506
0.037073
0.042540
0.049797
0.034557
0.017885
-0.051166
0.005047
-0.017904
0.008281
0.067471
0.104127
0.140159
0.164170
0.207997
0.207076
0.213747
0.235502
0.256591
0.230496
0.184717
0.187258
0.158384
0.177422
0.126012
0.160755
0.155133
0.129839
0.152532
0.121768
0.143508
0.146333
0.164809
0.150518
0.128746
0.112579
0.080389
0.037219
0.236475
0.119552
0.170912
0.163485
0.132798
0.017282
0.178102
0.179886
0.221279
0.169145
0.176396
0.034901
0.195654
0.132235
0.084248
0.096569
0.227298
0.071600
-0.033386
0.403117
0.401815
0.297797
0.439451
-0.124082
-0.210804
-0.191656
0.302658
0.289838
0.289773
0.295151
0.215613
0.417763
0.405351
0.167126
0.178223
0.188226
0.100617
-0.044798
-0.096528
-0.042443
-0.103470
-0.203205
-0.024178
-0.059259
-0.076968
-0.045421
-0.026509
0.356254
0.358375
0.352572
0.373619
0.357811
0.350801
0.365554
0.341996
0.322175
0.274739
0.302690
0.271642
0.293555
0.280863
0.257562
0.037036
0.020796
0.022985
-0.076251
-0.026864
-0.064887
0.069429
0.061724
0.069700
0.073529
0.071051
-0.067068
-0.103253
-0.082604
-0.103636
-0.150741
-0.089282
-0.033432
-0.010750
0.061540
0.019323
0.201666
0.241121
0.205597
0.013890
0.018930
0.000566
0.214439
0.234121
0.228341
0.241030
0.241067
0.229670
0.097922
0.124631
0.134782
0.269230
0.100080
0.046798
0.397859
0.407887
0.425402
0.184335
0.320805
0.066233
0.059792
0.067270
0.048760
0.120406
0.181640
-0.491869
0.226058
0.218915
0.034474
0.089991
0.122143
-0.128507
-0.025093
0.109827
0.123297
0.010528
-0.050410
-0.025220
-0.089504
-0.092837
0.040173
-0.004114
0.055052
0.204296
-0.130645
-0.081439
0.157653
0.079986
-0.081402
0.035799
0.148756
0.003556
0.021138
0.005144
0.005937
0.075311
-0.015025
0.190858
0.105555
0.097432
0.144462
0.119069
0.196083
0.112464
0.247791
0.227285
0.224194
0.168742
0.133035
-0.010140
0.024512
0.070426
-0.056802
0.025058
-0.005052
0.067451
0.082431
0.120204
0.129850
0.094567
0.024144
-0.010368
-0.094009
-0.165787
-0.184290
0.061297
0.007492
-0.007276
-0.028493
-0.063100
-0.092286
-0.115066
-0.138924
-0.144400
-0.155279
-0.165730
-0.189259
-0.178031
-0.164001
-0.139326
-0.106871
-0.080693
-0.139644
-0.154006
-0.116362
-0.132317
-0.037737
0.214961
-0.018279
-0.256802
-0.210985
-0.162459
-0.212118
-0.169352
-0.155910
-0.154451
-0.162716
-0.162389
-0.149667
-0.147331
-0.141077
-0.134676
-0.101234
-0.090711
-0.091847
-0.097542
-0.064225
0.003934
-0.146353
-0.111783
-0.167655
-0.068768
-0.093000
0.025722
-0.111021
0.144392
-0.179609
-0.269378
-0.199080
-0.140285
0.014497
-0.042869
-0.008507
0.034707
0.019286
-0.009386
0.081199
0.030334
0.056508
0.025941
0.003234
-0.009289
-0.014825
0.042994
-0.028262
0.030443
-0.008578
0.007558
-0.033031
0.009021
-0.017137
0.011603
0.017542
0.019003
0.032193
0.026141
0.049661
0.045773
0.047597
0.052732
0.085788
0.047347
0.122588
0.097597
0.155391
0.142037
0.118446
0.117887
0.074546
0.176526
0.105454
0.078130
0.082534
0.033493
0.026334
0.088255
0.017194
0.023434
0.033918
0.011910
0.042088
0.037839
0.036829
0.171674
0.184959
-0.092195
-0.177804
0.129807
-0.095257
-0.095506
-0.146111
-0.120729
-0.023918
0.130410
0.261985
0.066861
-0.201089
0.044458
-0.114254
-0.239813
-0.132311
-0.025788
0.233107
0.236133
0.250770
-0.131100
-0.145311
0.054866
-0.195859
-0.119862
-0.138309
-0.023210
-0.198435
-0.298793
-0.246849
-0.296316
-0.117973
-0.027078
-0.074956
0.290386
0.224937
0.056280
0.074261
0.054943
0.067114
-0.002756
-0.168859
-0.058148
-0.098539
-0.018105
0.000656
0.023429
0.038906
0.070169
-0.073855
0.072918
-0.015312
-0.220626
0.207635
0.058864
0.174437
0.140761
0.215965
0.113346
0.109329
0.134271
0.130235
-0.032528
0.029627
0.242111
0.231387
0.269075
0.239934
0.178773
0.262725
0.303334
0.269118
0.174613
0.129991
0.060256
0.027344
0.014610
-0.034692
0.035198
0.099919
0.136009
0.157911
0.187146
0.159292
0.095080
-0.011514
-0.106874
-0.199986
-0.209636
-0.161966
-0.118405
0.061493
0.142710
0.078116
0.126045
0.175439
-0.117222
-0.067865
-0.049455
-0.077452
-0.063726
-0.024592
-0.027697
0.032686
-0.191965
-0.240007
-0.208659
-0.176739
-0.171610
-0.110053
-0.085487
-0.059770
-0.000128
0.010044
-0.008319
-0.010105
0.018741
0.022129
0.025986
0.019403
-0.018835
-0.039566
-0.028384
0.032744
-0.044505
-0.029003
-0.034875
0.011549
-0.056956
-0.037753
-0.002390
-0.003675
-0.010872
0.024356
0.019257
0.045744
0.026723
0.025043
0.051511
0.088248
0.081611
0.099566
0.128265
0.136357
0.117636
0.155630
0.148203
0.130385
0.167549
0.088124
0.097372
0.085768
0.047595
0.053584
0.032692
0.016314
0.004458
0.003701
-0.033044
-0.048189
-0.053841
0.236199
-0.132142
-0.200034
-0.230408
-0.170121
-0.064894
0.091768
0.110052
0.110043
-0.052899
-0.164829
-0.148392
-0.253026
-0.255535
0.158239
0.109488
0.230042
0.282301
-0.089725
-0.233998
-0.152656
-0.168632
-0.193228
-0.158026
-0.115895
-0.178639
-0.259651
-0.283137
-0.175815
-0.061526
-0.155669
-0.231112
-0.239231
-0.232477
-0.237390
-0.126954
-0.046692
0.046369
0.015672
0.060894
-0.168312
-0.160140
-0.027600
0.080634
0.223129
0.241572
0.291663
0.196565
0.106571
-0.120725
-0.176395
-0.179666
-0.231296
-0.183919
-0.105332
-0.227548
-0.321535
-0.339671
-0.351976
-0.325514
-0.222318
-0.222615
-0.311960
-0.244164
-0.180623
-0.213717
-0.209623
-0.195697
-0.164390
-0.129310
-0.110843
-0.106579
-0.084478
-0.101867
-0.066620
-0.092272
-0.127922
-0.156868
-0.161120
-0.176829
-0.199296
-0.254437
-0.232087
-0.210369
-0.234914
-0.234145
-0.185267
-0.232066
-0.262576
-0.100866
-0.165626
-0.084711
-0.040849
-0.000449
0.026493
0.041179
0.017586
0.027102
-0.101199
-0.071234
-0.175968
-0.135367
0.112249
0.125159
0.127080
0.083636
0.162183
0.150982
0.186624
0.184956
0.227594
0.310761
0.272442
0.268290
0.227004
0.218101
0.234254
0.240296
0.160128
0.175752
0.133498
0.097316
0.067416
0.092969
0.142425
0.183478
0.167757
0.166502
0.173518
0.097068
-0.009415
-0.022872
-0.138437
-0.194720
-0.150712
-0.084527
-0.113463
-0.055127
0.063992
0.130363
-0.023944
0.208173
0.212352
-0.030382
-0.088892
-0.110568
-0.137174
-0.175291
-0.210093
-0.228684
-0.222966
-0.276117
-0.306066
-0.217391
-0.260631
-0.264671
-0.210543
-0.077632
-0.168642
-0.180095
-0.042420
0.117829
0.247191
0.160218
0.068998
0.097378
0.090365
0.115432
0.002076
0.006313
-0.008715
-0.072095
-0.042074
-0.065375
-0.112333
-0.236445
-0.290053
-0.252779
-0.263792
-0.117289
-0.075065
-0.042986
-0.023648
-0.014874
-0.015778
-0.029608
-0.051028
-0.024656
-0.047077
-0.040657
-0.024551
-0.032930
-0.059043
-0.041594
-0.015519
-0.067772
-0.064740
-0.053252
-0.058516
-0.061190
-0.056284
-0.085648
-0.038433
-0.053816
-0.049458
-0.032897
-0.011034
-0.018457
-0.003165
0.014699
0.015704
0.025425
0.028727
0.060971
0.071122
0.074694
0.066987
0.094485
0.139824
0.130785
0.136658
0.141200
0.151050
0.139073
0.088896
0.070325
0.039147
0.021402
-0.000950
-0.009155
-0.049022
-0.048622
-0.194471
-0.252510
-0.155095
-0.099173
0.031588
0.069209
0.002712
0.105189
-0.009979
-0.106343
-0.053907
-0.003636
0.190240
0.228455
0.272154
0.194411
-0.107451
-0.141727
-0.167231
-0.164090
-0.178020
-0.233316
-0.191181
-0.367088
-0.382341
-0.380710
-0.380831
-0.279087
-0.248646
-0.085832
-0.285789
-0.188370
-0.230375
-0.252609
-0.216509
-0.156340
-0.111836
-0.097626
-0.046915
-0.060752
0.049782
0.166072
-0.006350
-0.054690
-0.041071
0.028976
0.259994
0.203534
0.208548
0.174793
0.130739
0.091593
0.212917
0.228359
0.205419
0.176789
0.169841
0.255557
0.302842
0.303205
-0.062766
0.063550
0.264492
0.253736
0.187784
0.223893
0.164531
0.154115
0.109246
0.177835
0.206810
0.259931
0.238109
0.184027
0.117823
0.324790
0.269897
0.296383
0.285393
0.252468
0.244128
0.228627
0.181511
0.126943
0.075925
0.052020
0.091467
0.138096
0.168520
0.193446
0.216885
0.203597
0.007341
-0.030386
-0.004448
-0.164420
-0.179917
-0.097000
-0.082536
-0.057452
-0.046062
-0.053855
-0.040407
-0.021620
-0.033817
-0.075233
-0.072632
-0.086227
-0.085120
-0.205469
-0.221242
-0.147750
-0.284824
-0.165816
-0.108203
-0.021869
-0.028440
-0.017365
-0.051511
-0.063603
-0.074894
-0.081892
-0.077512
-0.054921
-0.052736
-0.059286
-0.046415
-0.025320
-0.043463
-0.070519
-0.042953
-0.061619
-0.052797
-0.088175
-0.090875
-0.069517
-0.030230
-0.075153
-0.051664
-0.041179
-0.010048
-0.027159
-0.029681
-0.026918
-0.005847
0.000444
0.004768
0.026683
0.050328
0.083463
0.113033
0.110309
0.096503
0.136413
0.100462
0.123354
0.102444
0.070256
0.090816
0.100416
0.044340
-0.003608
0.004671
0.009928
-0.055130
-0.084533
0.015315
-0.001922
0.037299
0.043786
0.071929
0.040639
-0.103007
-0.140798
-0.140753
-0.137963
-0.143260
-0.201819
-0.133127
-0.165419
-0.198033
-0.172419
-0.048217
-0.115935
-0.164110
-0.168059
-0.049151
0.182746
0.120617
0.151030
0.138070
0.117695
0.113413
0.104401
0.053879
0.048049
-0.096277
-0.121198
-0.046076
0.019042
0.061263
0.074396
0.030333
0.013296
0.063772
0.113066
0.198685
0.268151
0.254648
0.231484
0.192184
0.121093
0.060770
-0.023543
-0.134128
-0.141587
-0.168219
-0.172221
-0.164375
-0.237824
-0.354544
-0.350664
-0.384882
-0.396656
-0.369469
-0.364481
-0.284121
-0.328820
-0.038787
-0.317789
-0.295828
-0.323719
-0.293367
-0.215146
-0.105600
-0.088515
-0.038013
-0.025113
-0.056421
-0.182168
-0.350262
-0.202108
-0.043929
-0.338547
-0.128724
-0.065142
-0.063849
-0.036160
-0.032191
-0.039644
-0.050354
-0.062630
-0.044416
-0.071100
-0.130378
-0.120417
-0.057359
-0.082832
-0.067443
-0.047600
-0.072196
-0.045255
-0.019920
-0.013444
-0.052470
-0.045921
-0.089654
-0.056404
-0.056014
-0.073130
-0.112421
-0.388212
-0.365817
-0.292189
-0.311011
-0.347383
-0.358629
-0.178281
-0.314184
-0.285298
-0.076793
-0.095874
-0.075242
-0.037373
-0.018166
0.010711
-0.025779
-0.042169
-0.042437
-0.038559
-0.053785
-0.094964
-0.068382
-0.094498
-0.083288
-0.096202
-0.139190
-0.173514
-0.198831
-0.014236
-0.108144
-0.120593
-0.119788
-0.046594
-0.041050
0.172158
0.178542
0.099727
0.119762
0.128033
0.090617
0.073785
0.062502
0.065832
0.073770
0.005057
-0.007426
-0.038221
-0.053262
-0.016104
0.049738
0.161672
0.226323
0.200329
0.196641
0.162574
0.175144
0.170499
0.149652
0.181284
0.215731
0.244208
0.204889
0.223031
0.281425
0.294971
0.275765
0.286405
0.276916
0.261947
0.241815
0.195045
0.157291
0.155801
-0.082018
-0.084662
-0.094802
-0.075739
-0.044933
-0.061170
-0.026933
-0.031442
-0.033947
-0.023297
0.021738
0.061769
0.090820
0.091200
0.080490
0.058271
0.071805
0.102887
0.056256
0.044706
0.039938
0.032755
0.002912
-0.017593
-0.024233
-0.012695
0.140862
0.211768
0.237919
0.276375
0.327495
0.248777
0.037751
0.062837
-0.093767
-0.039463
-0.030200
-0.026621
-0.014322
0.006420
0.014380
0.021624
0.004257
-0.023981
-0.031248
-0.032961
-0.063681
-0.057331
-0.011928
-0.042499
-0.069101
-0.141449
-0.042757
-0.117045
-0.099882
-0.057647
-0.021310
0.058271
-0.005133
-0.026479
0.087630
0.184841
0.175465
0.144373
0.142689
0.098142
0.054282
0.046242
-0.010655
0.020182
0.098859
0.095271
0.063102
0.049420
0.105881
0.151073
0.246347
0.248113
0.222496
0.182601
0.125198
0.107566
0.010631
-0.017202
-0.350085
-0.378779
-0.391229
-0.210211
-0.219593
-0.220498
-0.156310
-0.371883
-0.257931
-0.285460
-0.243546
-0.178620
-0.112202
-0.061696
-0.116943
-0.064767
-0.044492
-0.051893
-0.066497
-0.108756
-0.088362
-0.124091
-0.115763
-0.049065
-0.050794
-0.034835
-0.026527
-0.018957
-0.031847
-0.027388
-0.045946
-0.023325
-0.023308
-0.031615
-0.063866
-0.092195
-0.070634
-0.045247
0.247233
0.109464
0.133971
0.066896
0.031857
-0.061180
-0.082254
-0.170428
-0.024049
-0.027172
-0.184490
-0.178355
-0.199244
-0.209389
-0.269477
-0.312958
-0.325500
-0.378939
-0.388060
-0.069603
-0.049564
-0.049892
-0.031043
-0.063776
-0.042039
-0.036384
-0.044728
-0.053926
-0.041218
-0.028841
-0.009635
0.008985
0.022753
0.055779
0.064412
0.051625
0.084953
0.074189
0.077114
0.086503
0.030017
-0.045301
-0.041944
0.004758
-0.016107
-0.053181
0.209303
0.236859
0.261560
0.300000
0.326860
0.318281
0.104496
0.095499
-0.076664
-0.092174
-0.080157
-0.021318
-0.073457
-0.027844
-0.018800
-0.001398
0.060323
0.040297
0.034185
0.018144
0.005412
0.266075
0.166614
0.130120
0.059517
0.072921
0.018899
-0.020722
-0.091060
-0.160263
-0.163883
-0.132268
-0.157591
-0.166075
-0.219000
-0.234063
-0.305173
-0.319027
-0.366855
-0.364925
-0.345743
-0.319839
-0.355859
-0.346206
0.153769
0.213228
0.167060
0.152190
0.158987
0.148902
0.188061
0.198794
0.208018
0.165622
0.205820
0.228265
0.225151
0.237472
0.295992
0.307621
0.302261
0.301708
0.287668
0.278177
0.253631
0.245175
0.164703
-0.017094
-0.008688
-0.021695
0.083249
-0.061502
-0.063562
-0.071485
-0.030466
0.056798
0.088404
0.060610
0.111463
0.009416
-0.006509
-0.029653
-0.027622
-0.016603
-0.078938
-0.095303
-0.115019
-0.078208
-0.044034
0.005543
0.004532
-0.005363
0.017634
0.011773
-0.012465
-0.005722
-0.015414
0.000615
0.030278
0.031953
-0.012452
-0.024213
-0.058562
-0.065753
-0.066127
-0.061661
-0.053624
-0.040793
-0.075220
-0.062441
-0.054400
-0.046107
-0.081840
-0.090564
-0.127495
-0.109511
-0.056651
0.002019
0.041402
0.005311
0.040720
0.045247
0.058596
-0.059401
-0.054892
-0.117408
-0.116313
-0.005974
-0.019059
-0.074541
-0.078917
-0.003713
-0.007125
0.009856
0.020878
0.015957
0.076649
0.083740
0.079666
0.072114
0.074414
0.079046
0.021203
-0.016953
-0.036927
-0.022055
0.005663
0.226720
0.144917
0.113047
0.091699
0.055252
0.030839
0.018677
0.044997
0.095620
0.110407
0.091871
0.096048
0.080277
0.142192
0.218022
-0.152767
-0.167274
-0.190452
-0.253504
-0.344683
-0.334240
-0.157470
0.311018
0.308127
0.301745
0.289966
0.290642
0.248140
-0.265142
-0.317778
-0.151608
-0.117355
0.285572
0.316130
0.327049
0.301410
0.163257
0.131145
-0.011839
-0.096361
-0.084094
-0.044080
-0.042979
-0.067021
-0.061419
-0.025060
-0.003398
0.033282
0.065271
0.075400
0.084589
0.068817
-0.009445
0.004984
-0.035241
-0.018117
-0.005490
-0.001749
0.043833
-0.012829
0.020692
0.048443
0.111554
0.138893
0.195450
0.140886
0.177576
0.196162
0.195358
0.196267
0.165826
0.215732
-0.115663
-0.024182
-0.013758
0.029121
0.049264
0.059135
0.067070
-0.000807
0.010334
0.010616
-0.039204
-0.041082
-0.052100
-0.044387
-0.062525
-0.055653
-0.051958
-0.065574
-0.052853
-0.030094
-0.036045
-0.021050
0.039755
0.056603
0.082629
0.066043
0.055385
0.071958
0.061740
0.041908
0.023515
-0.005981
-0.033789
-0.055888
-0.036327
-0.065090
-0.086715
-0.016897
-0.001465
-0.059804
-0.044550
-0.046833
-0.045047
-0.028765
-0.014398
-0.008245
0.022377
-0.004418
0.086691
0.036180
0.080264
0.088016
0.092890
0.106271
0.113863
0.061555
-0.011052
-0.064991
0.173274
0.066691
0.131595
0.162466
0.158483
0.151363
0.140721
0.134479
0.161240
0.202892
0.194576
0.173229
0.187752
0.221817
0.171884
0.070812
0.066434
0.122263
0.087318
0.147045
0.119174
0.108841
0.122270
0.132692
0.176389
0.184570
0.198308
0.202396
0.228973
0.232874
0.259628
0.272454
0.290970
0.101977
0.160593
0.136917
0.098638
0.057963
0.038467
0.039502
0.012491
0.296335
0.313400
0.323408
0.299055
0.216464
0.163253
0.033842
-0.019020
-0.058690
-0.102682
-0.084028
-0.071784
-0.047438
-0.055251
-0.047014
-0.011533
0.027339
0.062532
0.088098
0.103899
0.090519
0.102914
0.032891
0.109134
0.131363
0.130236
0.085547
0.138861
0.164451
0.193628
0.159196
0.113621
0.302519
0.305709
0.305748
-0.042989
0.012310
-0.021610
0.003125
-0.072861
-0.017460
-0.045128
-0.041434
-0.045052
-0.024559
-0.047948
-0.041152
-0.035973
-0.015555
-0.018806
-0.010380
-0.009319
0.006977
0.009890
0.051419
0.077029
0.122722
0.094866
0.173063
0.152626
0.172806
0.107754
0.116372
0.093388
0.063251
0.033676
0.003377
0.014975
0.008042
-0.012712
-0.032696
-0.039475
-0.015027
-0.007629
0.029864
0.318199
0.312675
0.292173
0.236953
0.166911
0.082795
0.029335
0.019195
-0.069151
-0.054942
-0.066143
-0.079461
-0.053363
-0.061636
-0.039075
-0.047054
0.007124
0.051951
0.103129
0.119205
0.122305
0.120358
0.088552
0.074942
0.074089
0.043999
0.031409
0.079672
0.059713
0.082230
0.086047
0.123660
0.096195
0.117447
0.099242
0.278267
0.286029
0.130297
0.120227
0.109844
0.123157
0.124239
0.139262
0.137589
0.116760
0.086830
0.075256
0.308088
0.047736
0.025301
0.059650
0.088666
0.107688
0.141160
0.087845
0.111423
0.146282
0.110269
0.125427
0.098299
0.072055
0.048188
0.044521
0.029072
-0.023190
-0.029733
0.000195
0.080180
0.095708
0.013988
0.093517
0.069532
0.096228
0.091463
0.085633
0.076027
0.094471
0.090483
0.062961
0.031981
0.011669
0.004569
-0.021794
-0.032564
-0.011386
-0.010800
-0.013411
-0.005157
0.003139
0.097857
0.087394
0.103736
0.129901
0.107651
0.302120
0.275134
0.223977
0.170923
0.113960
0.067951
-0.028562
-0.055624
-0.057731
-0.052330
-0.065068
-0.054172
-0.024452
-0.024298
-0.018774
0.062820
0.092481
0.135623
0.157834
-0.000581
-0.031336
-0.019420
-0.015635
0.019113
0.045554
0.120164
0.125764
0.131603
0.143349
0.120336
0.102348
0.112520
0.283073
0.108089
0.112203
0.123999
0.116653
0.149813
0.113714
0.058820
0.061725
0.067241
0.012070
0.006060
0.093509
0.098219
0.092003
0.074175
0.120481
0.115209
0.096685
0.097129
0.047174
0.079102
0.059460
0.033097
0.029532
0.018410
-0.034431
-0.018708
-0.013765
-0.025137
-0.007423
-0.023342
-0.004630
-0.023978
-0.036526
-0.011095
0.147958
0.128715
-0.030381
-0.016188
-0.019980
-0.011782
0.049099
0.060919
0.181065
0.041121
0.097070
0.086146
0.110289
0.110290
0.091323
0.116175
0.122402
0.152525
0.162646
0.200173
0.208944
0.265413
0.230005
0.186326
0.050822
0.008354
-0.027312
-0.037567
-0.009873
0.142442
0.149903
0.100205
0.120838
0.081604
0.132611
0.009505
0.043281
0.075951
0.104069
0.078349
0.110017
0.085153
0.072621
0.067172
0.080936
0.082275
0.120990
0.151217
0.180131
0.206816
0.241447
-0.007817
-0.016528
0.016023
0.017126
0.056192
0.055637
0.080387
0.069591
0.108990
0.087479
0.044507
0.036430
0.020227
0.058575
0.066909
0.116030
0.157427
0.196907
0.085709
0.054339
0.032229
0.224458
0.002344
0.021507
0.035762
-0.028096
-0.040369
0.031816
0.009254
0.079053
0.075966
0.104312
0.130653
0.087645
0.109608
0.118581
0.059352
0.142729
0.069321
0.006470
0.006919
0.011887
-0.002099
-0.003371
0.007304
-0.014377
0.010685
-0.003881
0.006652
-0.020805
-0.010282
-0.000848
0.007626
0.017754
0.000475
0.047731
0.079693
0.044138
0.066475
0.040936
-0.011094
0.030998
-0.022438
-0.020623
-0.000477
-0.003898
0.010336
0.014641
0.041564
0.036703
0.047199
0.059341
-0.059002
0.009817
0.223621
0.207185
0.243679
0.227248
0.235491
0.221353
0.073043
0.094419
0.118535
0.102231
-0.381628
-0.350068
-0.390510
-0.060880
-0.072538
-0.174428
-0.115121
0.107408
0.068175
0.166399
-0.312671
-0.283733
-0.249550
-0.267891
-0.171564
-0.152346
0.241093
0.263154
0.251126
0.231760
-0.017312
-0.002457
-0.064365
0.070058
0.029411
0.055900
0.056329
0.033493
0.062137
-0.033161
-0.022793
0.014711
0.079305
0.115981
0.074630
0.088192
0.125825
0.088714
0.139949
0.031788
0.047607
-0.048314
-0.001075
0.030256
0.057495
0.150233
-0.023776
0.053103
0.049966
-0.056099
-0.016947
-0.119067
-0.114370
-0.077518
-0.066363
-0.072274
-0.183169
0.081750
0.113885
0.068206
0.209350
0.113930
0.055183
-0.036283
0.038131
-0.086538
-0.103207
-0.246210
-0.031963
0.000559
0.029024
0.038703
-0.093374
-0.165134
-0.038134
0.150504
0.316625
0.230557
0.054646
0.144852
-0.061996
-0.369291
0.112171
0.063782
0.018576
-0.037669
-0.077261
-0.095649
-0.129253
-0.106223
-0.127282
-0.107400
-0.149090
-0.125229
-0.106714
-0.076814
-0.042175
0.015881
0.058905
0.016136
0.086385
0.120890
-0.189567
0.048300
0.150697
-0.082378
-0.126978
-0.122099
-0.047579
-0.095494
-0.098257
0.067250
0.032239
0.006222
-0.140926
-0.239231
-0.258405
-0.010447
0.037980
-0.009859
0.089009
0.017490
-0.000224
-0.048636
0.007794
-0.102146
-0.189952
-0.230719
0.252159
0.183689
0.246329
0.075359
-0.048770
-0.051686
-0.214238
-0.044572
0.057784
-0.115920
-0.155672
-0.107704
-0.181387
-0.074594
0.050038
0.078405
-0.105853
-0.136494
-0.033183
-0.072923
0.005873
0.105819
0.197564
0.255871
0.142844
-0.091790
0.050743
-0.007072
0.101121
0.013046
0.105367
0.035628
0.118687
0.109133
0.112671
0.147114
0.009712
0.152537
0.058805
0.083397
0.098330
0.132568
0.012504
0.134636
0.051421
0.102953
-0.020115
0.069503
-0.030719
0.061517
-0.039476
0.061874
-0.017652
0.066220
0.041633
0.081599
0.122707
0.132127
0.041518
0.120252
0.091999
0.076085
0.156968
0.104107
0.014559
0.127041
0.023439
0.085439
-0.027023
0.102555
-0.011035
0.097302
-0.000239
-0.089797
-0.065020
-0.089754
-0.093660
-0.230239
-0.228731
-0.257553
-0.285454
-0.287337
-0.259630
-0.238728
-0.182042
-0.160445
0.324534
0.224131
0.119025
0.023164
0.004047
-0.046669
-0.103500
-0.063433
0.131541
0.078119
0.141745
0.189216
0.095615
-0.099852
0.051860
-0.152287
-0.093128
-0.159978
-0.032451
0.065841
0.034307
-0.126524
-0.143596
-0.009048
0.167548
0.300954
-0.099711
-0.311020
-0.380126
-0.197231
-0.345620
0.155723
-0.004435
-0.123067
-0.203694
-0.195362
0.146418
0.169557
0.077401
0.023525
0.104353
-0.129620
-0.007982
0.004990
-0.039119
-0.035859
-0.037902
-0.069226
-0.073605
-0.066970
-0.068767
-0.104269
0.081097
0.201117
0.181663
0.104416
0.077566
0.010619
-0.018607
-0.177406
-0.073016
-0.130753
-0.102053
-0.047900
-0.028949
0.063186
0.003273
-0.073178
0.020580
-0.052813
0.057876
-0.014807
0.026303
0.119239
0.229289
0.196317
-0.113845
-0.081500
0.197960
0.284291
0.051987
-0.341944
-0.094950
-0.046046
0.025896
0.072839
0.089968
0.103302
0.101742
0.084660
0.098630
0.039449
0.078612
0.082977
0.088023
0.077023
0.123147
0.116353
0.111001
0.068098
0.075832
0.066689
0.024244
-0.010647
-0.026882
-0.031221
-0.043257
-0.037962
-0.017968
0.006442
0.058508
0.049284
0.090351
0.164533
0.058104
0.105644
0.099694
0.057501
0.128250
0.051741
0.068494
0.090411
0.109993
0.121736
0.175362
0.076445
0.093503
0.059860
-0.020017
-0.025820
-0.058591
-0.092898
-0.084424
-0.119018
-0.072670
-0.063448
-0.117059
-0.105162
-0.072680
-0.039629
-0.020915
0.024288
0.081925
0.069685
0.109506
0.058706
0.143362
0.144581
0.123129
0.081388
0.004506
-0.068193
-0.188252
-0.275554
-0.255669
-0.243291
-0.219105
-0.161041
-0.070602
0.053916
-0.016393
0.170742
-0.130625
0.029561
0.016657
0.096514
0.237234
0.238168
0.277044
0.210264
0.109528
-0.003450
-0.168224
-0.166786
-0.346157
-0.386627
-0.389996
-0.406006
-0.217725
0.248319
0.193766
0.028685
-0.060502
-0.076120
-0.123093
0.006905
-0.159869
-0.107502
-0.007822
0.280618
0.191162
0.208542
0.046814
-0.149483
0.033388
0.032951
-0.061327
0.008676
-0.073447
0.106971
0.221782
0.147325
0.195907
0.103575
-0.052437
-0.015622
-0.107066
-0.082993
-0.092766
-0.100932
0.060681
0.186926
0.159622
0.134952
0.080564
-0.030609
0.046050
-0.041248
-0.015468
0.050080
0.122685
0.201752
0.144482
0.145039
0.118195
0.058193
0.068961
0.043926
-0.002240
-0.033281
-0.050864
-0.070532
-0.090184
0.322093
0.263140
0.246364
0.145154
-0.004018
0.031379
0.027016
0.111530
0.264659
0.163058
0.173397
0.167567
0.174322
0.032460
-0.010270
-0.029405
-0.023314
-0.054438
-0.035892
-0.090029
-0.047362
0.027395
0.000747
0.026866
0.008615
0.071990
0.126537
0.010584
0.093558
0.074385
0.072143
0.019204
0.085659
0.109567
0.124875
0.122047
0.115181
0.115580
0.093423
0.085608
0.081586
0.099794
0.088510
0.119418
0.084401
0.080136
0.046645
0.076389
0.016276
-0.003001
-0.049897
-0.073916
-0.089721
-0.099445
-0.094993
-0.069248
-0.019115
0.032799
0.058824
0.089341
0.082563
0.089959
0.118886
0.131033
0.111593
0.114754
0.077178
0.096822
0.133475
0.077467
0.067965
0.073687
0.035503
0.166521
0.169329
0.070822
-0.005642
0.064685
0.145940
0.206199
0.249247
0.205485
0.167042
0.134833
0.005882
-0.059854
-0.150881
-0.251977
-0.155395
-0.369860
-0.398417
-0.413176
-0.344297
-0.188381
0.190146
0.221972
0.101447
0.044155
-0.019896
-0.039093
-0.089245
-0.011839
0.113294
0.051970
0.090161
0.275736
0.186944
0.255381
0.207992
0.204715
0.103311
0.171907
0.086663
0.021476
0.000020
0.092631
-0.018226
0.091247
0.179758
0.146048
0.120869
0.015437
-0.018123
-0.030740
-0.084327
-0.055399
-0.068584
0.047114
0.154809
0.226855
0.165887
0.128692
-0.009347
-0.061194
-0.042265
0.012259
0.054082
0.128518
0.163067
0.130527
0.132374
0.103986
0.104354
0.073151
0.064198
0.056915
0.035999
0.000343
-0.032460
-0.058251
0.021819
-0.006837
0.001082
-0.009741
-0.000090
-0.001303
0.011487
0.096346
0.021177
0.071715
0.068575
0.062884
0.094958
0.077342
0.054379
0.161843
0.173998
0.244227
0.228589
0.114470
0.135479
0.150213
0.188886
0.243225
0.222874
0.190255
0.156863
0.184654
0.080092
0.099314
0.122693
0.098260
0.089630
0.083951
0.088968
0.063049
0.058982
0.072597
0.090012
0.044037
0.084902
0.057501
0.032221
0.059010
0.018459
-0.013438
-0.072465
-0.120794
-0.139263
-0.152375
-0.147210
-0.102272
-0.046792
0.006493
0.048056
0.085176
0.107247
0.120287
0.055944
0.128476
0.103466
0.109590
0.069749
0.081170
0.090297
0.075947
0.032174
0.033732
0.201063
0.152859
0.093224
0.155157
0.186609
0.193024
0.193570
0.190995
0.087118
0.074448
0.008085
-0.057396
-0.139326
-0.167163
-0.216348
-0.317201
-0.402610
-0.415777
-0.373472
-0.362669
0.038952
0.171338
0.157400
0.206317
0.133707
0.033982
-0.022792
-0.013221
-0.070712
-0.207584
-0.386746
-0.394974
-0.395217
-0.390598
-0.181879
-0.090031
0.256671
0.171218
0.217862
0.192849
0.115947
0.044742
-0.015425
-0.031025
0.006484
0.086993
0.189357
0.193446
0.276846
0.327675
0.326238
0.222455
0.267887
0.236647
0.174095
0.171931
0.072895
0.069296
0.086817
0.040073
0.096505
0.126094
0.137476
0.079690
0.039106
0.014576
-0.006937
-0.053059
-0.043961
-0.000614
0.069851
0.126345
0.211759
0.224903
0.191343
0.150067
0.068443
0.050834
-0.019287
-0.032760
-0.049492
-0.030681
-0.000089
0.051690
0.108432
0.119333
0.146346
0.129131
0.141461
0.106892
0.101245
0.087361
0.074183
0.065589
0.043479
-0.001903
0.009322
0.016703
0.037361
0.011296
0.031587
0.087822
0.047599
0.086241
0.039045
0.089039
0.095843
0.126866
0.143912
0.185615
0.212627
0.209512
0.193228
0.164009
0.171428
0.154692
0.149183
0.157613
0.222846
0.232169
0.209549
0.087718
0.118873
0.134319
0.115344
0.101813
0.083059
0.098443
0.067398
0.019563
0.074720
0.037972
0.088859
0.030911
0.047563
0.056754
0.022004
0.023789
-0.000228
-0.083647
-0.126962
-0.181793
-0.186162
-0.149182
-0.137160
-0.020440
0.021762
0.038622
0.046385
0.084932
0.089843
0.127616
0.118422
0.099882
0.094134
0.091149
0.119057
0.090135
0.089482
0.038293
0.140434
0.168180
0.101187
0.112499
0.088919
0.119176
0.140073
0.121769
0.126401
0.066295
0.047454
0.030581
-0.010973
0.034135
0.056515
0.034687
0.087251
0.206162
0.224293
0.240520
0.206584
0.166244
0.125381
0.109767
0.055671
-0.015606
-0.032604
-0.051016
-0.022350
0.017357
0.053334
0.056276
-0.002146
-0.183484
-0.343860
-0.398862
-0.367118
-0.354965
-0.163629
-0.201894
-0.037226
0.114088
0.220758
0.180286
0.153601
0.063372
0.042348
0.046721
0.016239
0.041835
0.092146
0.136873
0.155195
0.177499
0.262780
0.316032
0.326108
-0.109935
-0.022970
0.082885
0.089615
0.122395
0.134085
0.104007
0.135454
0.118838
0.141470
0.037958
0.026334
0.057952
0.060117
0.068020
0.071291
0.075803
0.093608
0.092667
0.101605
0.123372
0.113820
0.138372
0.157681
0.179558
0.180668
0.183529
0.188174
0.185939
0.175071
0.314701
0.250218
0.210735
0.204040
0.123806
0.119723
0.100486
0.094031
0.074281
0.070460
0.085604
0.042922
0.059752
0.075498
0.079129
0.057365
0.068255
0.027161
0.037380
0.046211
0.005765
-0.097911
-0.197989
-0.190259
-0.190706
-0.190381
-0.131894
-0.000448
0.043414
0.044535
0.045474
0.088956
0.073341
0.093818
0.121669
0.130789
0.055468
0.073134
0.125503
0.089723
0.045362
0.180311
0.159641
0.095647
0.168255
0.073258
0.085434
0.052182
0.070151
0.060164
0.096362
0.079034
0.080051
0.096163
0.101403
0.116822
0.121013
0.139155
0.141584
0.170049
0.160836
0.158677
0.178762
0.171673
0.197446
0.030594
0.030522
0.074320
0.115948
0.139287
0.194710
0.203495
0.202021
0.186426
0.159959
0.136292
0.121464
0.096573
0.056135
0.017535
-0.024903
-0.021917
0.006955
0.018290
0.171197
0.140454
0.137975
0.131374
0.169190
0.319480
0.265854
0.239466
-0.000406
-0.027896
-0.045800
-0.039537
-0.035981
-0.116052
-0.173053
-0.208607
-0.358379
-0.350377
-0.366397
-0.175988
-0.315912
-0.043316
-0.023239
0.133363
0.171915
0.129901
0.089636
0.066562
0.062601
0.026314
0.056969
0.098177
0.128392
0.167373
0.172194
0.203532
0.248093
0.214572
0.097073
0.113329
0.129617
0.093607
0.078334
0.064200
0.066775
0.033411
0.046527
0.055175
0.079721
0.054375
0.052120
0.030852
0.044122
0.030675
0.042058
-0.048658
-0.233435
-0.233881
-0.256461
-0.235196
-0.049530
0.016657
0.065532
0.063708
0.046139
0.081696
0.103139
0.065850
0.114901
0.116241
0.070335
0.082959
0.112606
0.094862
0.018924
0.066539
0.075088
0.081323
0.118771
0.153594
0.149049
0.126490
0.101928
0.104100
0.132926
0.136094
0.163116
0.180695
0.186046
0.173604
0.151590
0.129940
0.110563
0.108799
0.103437
0.084194
0.057142
0.014484
-0.014481
-0.024249
-0.002617
0.001441
0.047356
0.044934
0.068721
0.074957
0.134822
0.120648
-0.021235
-0.039693
-0.038156
-0.024241
-0.116592
-0.116758
-0.100610
-0.346041
-0.330842
-0.360723
-0.366984
-0.038502
-0.188457
0.102788
-0.249102
-0.381953
-0.355239
-0.371218
-0.359228
0.090024
0.047672
0.114961
0.131025
0.099358
0.057143
0.076795
0.039531
0.037107
0.078902
0.129254
0.068585
0.063710
0.097942
0.087463
0.061764
0.073784
0.075861
0.114744
0.035019
0.053556
0.040279
0.072519
0.008212
0.061076
-0.028198
-0.281923
-0.260310
-0.274268
-0.290327
-0.027109
0.037287
0.083242
0.028371
0.061389
0.044269
0.093197
0.085206
0.131854
0.094326
0.082587
0.074628
0.101171
0.071818
0.081433
0.085937
0.103732
0.115325
0.123057
0.142860
0.130114
0.113367
0.099322
0.112493
0.125570
0.085084
0.086188
0.127572
0.146625
0.173732
0.176161
0.131084
0.112455
0.161613
0.155149
0.152442
0.138386
0.124983
0.107742
0.094581
0.088407
0.069057
0.094842
0.087678
0.079788
0.054379
0.029793
0.000090
0.010353
0.009240
0.024003
0.049059
0.052038
0.053084
0.167427
0.140418
0.067498
0.066289
0.069562
0.061364
0.071680
0.097152
0.109096
0.067247
0.068348
0.043815
0.074683
0.076979
0.012805
-0.069900
-0.282058
-0.325674
-0.311775
-0.319331
-0.016588
-0.011895
0.082359
0.061389
0.052286
0.038657
0.063579
0.067377
0.100363
0.121330
0.103865
0.082144
0.085923
0.104246
0.080331
0.064827
0.094084
0.068415
0.066586
0.054434
0.090937
0.077169
0.104124
0.114044
0.111861
0.105978
0.099242
0.069326
0.084859
0.107679
0.088636
0.064317
0.071086
0.090311
0.059466
0.045132
0.005680
0.011883
0.008751
0.012405
0.018980
0.076242
0.092741
0.089912
0.096441
0.087232
0.046828
0.073435
0.056178
0.059350
0.022269
-0.002565
-0.019791
-0.022573
-0.019958
-0.012775
0.000635
0.140037
-0.132537
-0.345753
-0.338369
-0.355085
-0.354012
-0.342812
-0.202256
0.108637
0.096041
0.105398
0.110230
0.098084
0.082892
0.089998
0.110264
0.069122
0.061463
0.071682
0.016577
0.063108
0.049708
0.064649
0.075609
0.105988
0.058460
0.056097
0.056885
0.079846
-0.001179
0.014724
-0.153237
-0.287240
-0.332475
-0.333544
-0.272145
-0.157572
-0.014888
-0.015447
0.055175
0.078620
0.040000
0.044436
0.072549
0.070330
0.084080
0.078666
0.079660
0.084640
0.091775
0.081087
0.023583
0.057126
0.069882
0.074423
0.074491
0.071587
0.041932
0.037894
0.071471
0.070627
0.029170
-0.045842
-0.076234
-0.336371
-0.372548
-0.371734
-0.351113
-0.211304
0.025257
0.060093
-0.052730
0.032791
0.014508
0.019119
0.064614
0.063497
0.107971
0.081426
0.071260
0.064773
0.103417
0.051149
0.031685
0.029049
0.080874
0.097806
0.016842
0.005249
0.000737
0.007272
0.006659
0.064655
0.149129
0.236126
-0.369570
-0.325650
0.100149
0.083897
0.055853
0.058846
0.058434
0.079707
0.065371
0.068567
0.041186
0.051022
0.014418
-0.339421
-0.350505
-0.072153
0.106264
-0.282188
0.055488
0.072047
0.023673
-0.003243
0.026051
0.040459
0.063437
0.080827
-0.204479
0.082973
0.056661
-0.019395
0.012186
0.078392
0.047135
0.043009
0.039185
0.089535
0.098783
0.081967
0.064853
0.073507
0.071037
0.022749
0.039211
0.122910
0.086734
0.080560
0.076802
0.099949
0.084066
0.068680
0.076155
0.076541
0.068010
0.086575
0.067316
0.076491
0.070125
0.034771
0.013746
0.043229
0.005620
0.025323
-0.002841
0.077686
0.018018
0.032983
0.089159
0.050378
0.059678
0.020087
0.044255
-0.027622
-0.039970
-0.084538
-0.020098
-0.085549
-0.089647
-0.104076
-0.176138
-0.145503
0.141660
0.164024
0.181533
0.149850
-0.002984
0.047461
0.092066
0.050886
0.211207
0.057839
0.063308
0.062711
0.072443
0.078197
0.052623
0.289454
0.227368
0.066342
0.045219
SCALARS LE22_SP1(MPa) float 1
LOOKUP_TABLE default
-0.369195
-0.383213
-0.320758
-0.097775
-0.088182
-0.204712
-0.370233
-0.141250
0.143436
0.297445
0.111071
0.101367
-0.099703
-0.172769
-0.098384
-0.087885
-0.185677
-0.301946
-0.044959
-0.196102
-0.037675
-0.036581
-0.060614
0.050555
-0.109498
-0.246141
-0.196685
-0.222013
0.113238
0.147609
0.110339
0.220372
0.123179
-0.106376
-0.215351
-0.076650
0.111347
0.361108
0.280277
0.346163
0.118547
0.212207
0.330229
0.304393
0.182352
0.042657
-0.094977
0.092708
0.155979
0.071696
-0.171198
0.096940
-0.240213
-0.111530
-0.141749
-0.308683
-0.318253
-0.140129
0.039332
-0.368795
0.134664
0.090474
-0.265167
0.031556
-0.060816
-0.100028
-0.399389
0.152543
-0.307916
-0.216258
-0.257370
-0.146635
-0.250954
-0.170016
0.005855
0.088302
-0.178759
-0.018344
0.222961
0.253408
0.143360
0.011211
-0.224071
-0.021458
-0.121958
-0.006385
-0.201166
-0.167540
-0.038049
0.081074
0.028172
-0.258709
-0.218640
-0.272986
-0.220676
-0.364765
-0.056635
-0.052119
-0.108311
-0.040414
-0.323730
-0.220735
-0.029068
-0.132766
-0.161105
-0.305698
-0.091736
-0.027436
-0.024871
-0.045625
-0.071735
-0.081172
-0.183784
-0.064681
-0.095786
-0.049365
-0.082033
-0.157553
-0.171036
0.087093
0.143334
-0.002333
0.047238
0.397034
0.369889
0.313811
0.306713
0.330699
0.190363
0.064918
-0.127305
-0.244177
-0.040892
-0.069388
-0.181087
0.113580
-0.047897
0.336171
0.367111
0.336761
0.220390
-0.067839
-0.245502
0.023515
-0.108920
-0.124107
-0.145882
-0.118339
-0.208016
0.073055
0.122419
0.192483
0.056960
0.349694
0.249256
-0.330866
-0.364628
-0.448804
-0.481376
-0.111995
-0.371429
-0.205205
0.142298
0.171511
0.250070
0.317467
0.307515
0.296809
-0.079948
-0.229683
-0.276551
-0.375087
-0.265211
-0.049428
0.107087
0.214014
0.338869
0.367802
0.174843
-0.006023
0.002220
0.008808
0.005760
-0.006675
-0.114187
-0.059656
0.177732
0.154298
-0.067440
-0.259411
-0.156584
0.116501
0.357853
0.229440
0.191763
0.102501
0.169893
0.258464
0.294193
0.319123
0.158533
-0.094121
0.226888
0.043206
0.030928
-0.112069
-0.113768
-0.315557
-0.350848
-0.219811
-0.286486
-0.296544
-0.057294
0.010102
0.245527
-0.114800
-0.073954
-0.029487
-0.177249
-0.500536
-0.402692
-0.131055
-0.336276
-0.279032
-0.211855
0.066065
-0.286913
-0.087253
0.122067
-0.084233
0.298043
0.401281
0.312695
0.122819
0.100214
-0.198257
-0.085303
-0.078417
-0.208209
-0.171665
-0.266326
-0.007086
0.071120
0.141424
-0.019194
-0.091660
-0.233314
-0.349452
-0.333761
-0.390635
-0.173318
0.250026
-0.233772
-0.152317
-0.266289
0.026007
0.238675
0.077896
-0.012473
-0.050167
-0.088597
-0.030066
-0.034157
-0.090634
-0.072981
-0.088946
-0.138180
-0.114044
-0.075732
-0.138017
-0.193783
-0.162167
-0.094151
0.065024
0.056208
0.156663
0.438535
0.431656
0.398695
0.387923
0.321059
0.280180
0.197470
0.013924
-0.303455
-0.240963
-0.209038
-0.194789
0.056962
-0.075191
0.310732
0.401420
0.358338
0.210405
-0.034797
-0.215907
-0.097044
-0.004229
-0.090449
-0.079365
-0.174328
-0.362551
-0.019434
0.069560
-0.006050
0.266739
0.392129
0.269285
-0.281291
-0.442772
-0.378641
-0.120709
-0.217040
-0.006786
0.082400
0.195580
0.282683
0.340690
0.360397
0.387370
-0.051930
-0.157200
-0.170695
-0.271100
-0.186655
0.045612
0.150720
0.250938
0.365300
0.398785
0.137518
0.206829
0.298201
0.253858
0.226393
0.179840
0.089805
0.145473
0.152078
0.155135
0.195521
-0.040881
0.003858
0.182360
0.380376
0.186263
0.238109
0.219971
0.309449
0.371730
0.313626
-0.126025
-0.281005
-0.194827
-0.158250
-0.166906
0.073935
0.014402
-0.391403
-0.164939
0.042037
-0.019876
0.277966
0.258194
-0.279388
0.035665
0.260040
0.236310
0.316326
-0.205076
-0.050788
-0.057250
-0.124198
-0.123872
-0.107980
-0.035146
-0.116422
0.240591
0.133385
0.365216
0.348581
0.093067
-0.109014
-0.269678
-0.150916
-0.385159
-0.288878
-0.121094
0.184576
0.259299
0.196051
-0.286278
-0.442017
-0.467951
-0.164128
-0.135469
-0.096181
-0.189271
-0.073597
0.061625
-0.155191
0.186373
0.101491
0.082417
0.038708
-0.009309
-0.034553
-0.047678
-0.042256
-0.010079
-0.036129
-0.049215
-0.082486
-0.086296
-0.143328
-0.154436
-0.139977
-0.117748
0.113033
0.177543
0.405675
0.328783
0.424001
0.404197
0.383072
0.384226
0.345921
0.280431
0.126624
-0.161836
-0.187333
-0.179054
-0.176844
0.083663
0.080023
0.334628
0.371032
0.349719
0.303776
0.123310
-0.100109
0.020654
0.080165
-0.008190
0.004961
-0.051517
-0.218220
-0.008457
0.034072
0.062047
0.288393
0.337757
0.323273
0.236659
0.030099
-0.055901
-0.057708
-0.003683
-0.085454
0.006543
0.115006
0.136435
-0.039105
0.020128
-0.037223
-0.210339
-0.196609
-0.134311
-0.050793
0.199854
0.153355
0.309203
0.291577
0.117083
-0.020605
-0.209786
-0.386286
0.251838
0.237320
0.229512
-0.488689
-0.462621
0.237887
0.406672
0.328615
0.251622
0.370698
0.350430
0.383713
0.367700
0.401381
0.382242
0.396854
0.409072
0.405152
0.410648
0.404562
0.399975
0.390996
0.385374
0.373414
0.350887
0.364635
0.365673
0.412886
0.370101
0.417429
0.420183
0.445934
0.420532
0.434513
0.442080
0.431490
0.448503
0.443062
0.452388
0.439262
0.436760
0.430403
0.409088
0.424395
0.410650
0.393677
0.377756
0.344966
0.408240
0.325520
0.330218
0.331536
0.249782
0.310787
0.279486
0.292768
0.278897
0.258923
0.288891
0.341748
0.262789
0.329165
0.380162
0.346059
0.373516
0.407361
0.363901
0.366993
0.329230
0.359457
0.334290
0.332158
0.342293
0.379711
0.369179
0.358298
0.345249
0.385509
0.356355
0.364499
0.353880
0.344816
0.361915
0.385579
0.358682
0.389426
0.379656
0.374092
0.366791
0.377157
0.428120
0.390543
0.377853
0.420224
0.363590
0.364167
0.353395
0.409190
0.416625
0.396067
0.422610
0.413598
0.408834
0.432847
0.421586
0.430997
0.424574
0.450675
0.439461
0.449333
0.459229
0.457815
0.446970
0.459307
0.453281
0.444653
0.442130
0.446687
0.427253
0.437894
0.425871
0.408994
0.395986
0.419785
0.403595
0.408961
0.391175
0.399530
0.351170
0.390914
0.414263
0.341503
0.359613
0.360150
0.357046
0.325009
0.386563
0.311646
0.362226
0.350320
0.247050
0.316742
0.407848
0.385132
0.277361
-0.100079
0.155123
0.182913
0.118841
0.171127
0.226065
0.250344
0.293807
0.342362
0.346848
0.359881
-0.048928
0.393589
0.360753
0.368255
0.348260
0.287024
0.177231
0.015449
-0.030892
0.027270
0.079348
-0.162703
-0.317790
-0.006883
0.206412
-0.297910
-0.219188
-0.062797
0.086550
0.035948
-0.006257
0.035423
0.021525
-0.007617
0.034328
-0.041394
0.105770
-0.166761
-0.336613
0.417920
0.430063
0.443150
0.450371
0.456340
0.460892
0.465065
0.464519
0.459550
0.451234
0.442979
0.431226
0.423969
0.407730
0.409876
0.404495
0.271483
0.396826
0.393644
0.333351
0.191497
0.031872
-0.029593
0.270929
0.271469
0.376605
0.260524
0.202105
0.417268
-0.103780
0.006317
0.361823
0.187873
0.136791
0.057515
0.400210
0.417802
0.441209
0.433906
0.433234
0.437587
0.455784
0.440288
0.464439
0.457583
0.461400
0.462427
0.452562
0.422763
0.433210
0.422069
0.374402
0.392075
0.400388
0.362308
0.365020
0.341596
0.300500
0.352112
0.253716
0.235510
0.295769
0.288677
0.261321
0.255334
0.287127
0.313545
0.323100
0.277336
0.328097
0.361364
0.372728
0.358572
0.394454
0.390176
0.341341
0.339428
0.352489
0.331059
0.334031
0.344313
0.382465
0.362730
0.329033
0.342103
0.358140
0.377329
0.363052
0.361195
0.381054
0.381391
0.362607
0.393427
0.388437
0.391472
0.360536
0.368036
0.397507
0.371999
0.369188
0.407382
0.370555
0.400090
0.374739
0.354672
0.379164
0.405248
0.394466
0.436455
0.398174
0.438344
0.450930
0.446118
0.438471
0.436349
0.421257
0.453586
0.456181
0.443008
0.448132
0.446030
0.442307
0.433678
0.433554
0.449968
0.427499
0.421450
0.442653
0.394799
0.392632
0.418701
0.420956
0.415790
0.408897
0.377918
0.375923
0.414889
0.404692
0.364717
0.381144
0.378453
0.357752
0.338918
0.336396
0.382195
0.368931
0.325301
0.345737
0.335457
0.398115
0.289483
-0.236424
-0.118494
0.027727
0.043115
0.179731
0.212381
0.176790
0.229031
0.251346
0.325393
0.396555
0.391294
0.356392
0.239065
0.135888
0.021905
-0.028350
-0.040575
0.160208
0.044405
-0.157017
-0.282948
0.271550
0.424358
0.422860
0.409188
0.355750
0.285381
0.159933
0.236827
0.285551
0.294080
0.299883
0.374712
0.466005
-0.028233
0.013830
-0.150092
-0.210482
-0.301694
-0.343983
-0.116150
-0.216747
-0.081072
0.109750
0.167121
0.249286
0.300150
0.329972
0.421899
0.419912
0.423048
0.436578
0.434593
0.456590
0.450475
0.448404
0.464107
0.471563
0.471558
0.472751
0.461251
0.434644
0.443316
0.414823
0.380312
0.397575
0.391141
0.369166
0.357377
0.353204
0.328110
0.361673
0.296587
0.292121
0.301146
0.295016
0.284620
0.274389
0.285023
0.319506
0.302400
0.346359
0.354183
0.358618
0.375106
0.350243
0.376098
0.375158
0.332319
0.352298
0.318699
0.350437
0.345230
0.343656
0.334897
0.355244
0.342701
0.379312
0.357526
0.381225
0.374022
0.381071
0.371191
0.385664
0.385218
0.389631
0.388019
0.413947
0.407337
0.385050
0.407343
0.409851
0.409910
0.395295
0.401660
0.389101
0.403407
0.350634
0.380953
0.405525
0.405252
0.450362
0.410581
0.438309
0.459327
0.440011
0.452255
0.457597
0.448402
0.461666
0.457992
0.453889
0.451446
0.456992
0.452902
0.435000
0.443848
0.448590
0.437395
0.434293
0.441616
0.426278
0.416009
0.427011
0.451982
0.387084
0.407040
0.417208
0.363965
0.425439
0.410382
0.375345
0.367571
0.363300
0.322697
0.365136
0.332105
0.380937
0.337625
0.308248
0.304741
0.323896
0.309122
0.141103
-0.214180
-0.088843
0.171944
-0.043742
-0.090006
0.158342
0.207732
0.232307
0.274850
0.310118
0.281259
0.223424
0.055629
-0.027821
-0.110701
0.199395
-0.048731
-0.085445
-0.130959
-0.266807
0.476746
0.478196
0.476878
0.473166
0.475071
0.473827
0.471414
0.467467
0.462272
0.453835
0.447633
0.442991
0.429279
0.212101
0.103914
-0.030046
-0.034489
0.229483
0.026579
-0.152896
-0.104977
-0.160835
-0.174996
-0.368181
-0.403969
-0.204626
-0.048297
-0.287713
0.188574
0.320271
0.309487
0.360419
0.410259
0.425151
0.414503
0.107836
-0.164263
-0.118770
-0.225778
-0.120049
0.127892
0.227534
0.313846
0.375245
0.386419
0.228496
0.244494
0.328712
0.361969
0.334741
0.232010
0.302792
0.378413
0.452300
0.387745
0.217452
0.094736
0.253078
0.385863
0.426470
0.426498
0.450877
0.200719
0.169754
0.129799
0.196379
0.297129
0.271993
0.271610
-0.047788
-0.211528
-0.280771
-0.219118
-0.166124
0.231225
0.114918
0.037187
-0.107913
-0.148452
-0.007322
-0.208297
-0.114642
-0.019760
0.001956
0.272364
0.114432
0.095191
0.021999
0.116095
0.026106
-0.030702
-0.029848
-0.253123
-0.067209
0.149708
0.200404
0.264889
0.258701
0.314328
0.309460
0.264596
-0.065530
-0.348409
-0.166950
0.396779
0.294621
0.438989
0.253564
-0.223504
-0.340637
-0.158937
-0.076324
0.023339
0.133689
0.172446
0.224465
0.259899
0.348799
0.433034
0.389168
0.453541
0.409803
0.277398
-0.363826
-0.289406
-0.262443
-0.219425
-0.230814
0.142547
0.118137
-0.207728
0.156531
0.191657
0.164479
0.133007
0.099229
0.058906
0.019949
0.011695
0.016695
0.053022
0.034218
-0.007062
0.007632
-0.028251
-0.084526
-0.070240
-0.051558
-0.021777
0.147210
0.211050
0.322637
0.399936
0.392053
0.430345
0.420645
0.400912
0.350029
0.285112
0.189410
-0.023407
-0.177594
-0.183392
-0.132712
0.031693
0.127087
0.228150
0.331249
0.339267
0.296740
0.191028
-0.095427
0.093734
0.102774
0.171367
0.039610
0.015697
-0.113856
-0.027438
0.028205
0.065499
0.176111
0.324859
0.197898
0.209643
0.192260
0.170636
0.087620
0.076127
-0.371536
0.059895
-0.142370
-0.171339
-0.191524
-0.159530
-0.201391
-0.131067
-0.188479
-0.242348
-0.083858
-0.149223
0.089563
0.311238
0.330069
0.396217
0.417427
0.413248
0.336318
0.229852
0.013683
-0.037657
-0.112107
0.024842
0.255474
0.284541
0.339485
0.372058
0.342219
0.314416
0.344688
0.357737
0.407396
0.402112
0.418343
0.439080
0.473733
0.062830
0.251464
0.387746
0.429624
0.415462
0.343479
0.324636
0.150710
0.141928
0.086591
0.104746
0.285841
0.255247
0.254579
-0.208033
-0.151667
-0.113176
0.178347
0.096380
0.045135
0.099430
0.004377
0.048788
-0.181984
0.165779
0.371969
0.259331
0.175936
0.370000
0.298445
0.087857
0.164800
0.057610
-0.031966
-0.095577
-0.117322
0.045216
0.138800
0.187567
0.244698
0.259788
0.289216
0.288897
0.332155
0.289673
0.062687
-0.156387
-0.069306
0.295642
0.265887
0.376980
0.421601
0.424870
0.327289
-0.081102
-0.212133
-0.190858
-0.039592
0.003814
0.113736
0.210660
0.215702
0.257599
0.270071
0.298503
0.379470
0.400344
0.318704
0.199423
0.210486
0.241693
0.386391
-0.094067
-0.128314
-0.102338
-0.168882
0.036579
-0.027497
0.010352
0.010914
0.028554
0.011510
-0.272314
-0.126805
-0.148593
0.017780
-0.259817
-0.215628
-0.142108
-0.107444
0.039465
0.253983
0.303262
0.306431
0.372855
0.443452
0.470006
0.451528
0.436761
0.397177
0.374221
0.279877
0.269455
0.296300
0.305580
0.331954
0.333439
0.448279
0.422744
0.430856
0.437506
0.446906
0.449261
0.444406
0.445088
0.459656
0.480687
0.476250
0.478209
0.469212
0.439166
0.450769
0.402987
0.377316
0.408164
0.389116
0.380581
0.363869
0.345925
0.361349
0.350630
0.312101
0.313869
0.307836
0.307663
0.292777
0.286906
0.303950
0.328790
0.358905
0.364825
0.353657
0.339683
0.356685
0.353538
0.350680
0.369040
0.364249
0.307547
0.335312
0.334243
0.368726
0.354592
0.370299
0.361734
0.370091
0.339116
0.373114
0.368918
0.397042
0.377529
0.391134
0.407086
0.388215
0.416639
0.412353
0.409916
0.392004
0.387232
0.405418
0.414178
0.414443
0.422085
0.392101
0.416548
0.374025
0.427003
0.412977
0.427563
0.448367
0.429969
0.432764
0.463812
0.462411
0.449004
0.455776
0.462031
0.463117
0.469097
0.465395
0.453544
0.475759
0.450688
0.443318
0.468085
0.459083
0.428576
0.438183
0.437615
0.424323
0.435559
0.433804
0.431402
0.398302
0.422129
0.372437
0.436567
0.412963
0.387164
0.378695
0.395650
0.375716
0.351359
0.338999
0.337998
0.354038
0.304325
0.275887
0.291018
0.293490
0.299563
0.241474
0.202896
0.071277
0.224962
0.173370
0.141973
0.076902
0.474036
0.480330
0.483537
0.477253
0.475529
0.472496
0.466850
0.461193
0.457430
0.452734
0.438058
0.201218
0.244068
0.231309
0.139390
0.174307
0.113516
0.090789
0.088601
0.109845
0.093972
0.095865
0.070448
0.041878
0.000858
-0.004204
0.028105
0.117330
0.162686
0.241961
0.335626
0.376423
0.415621
0.404620
0.378342
0.341209
0.284280
0.101342
-0.085840
-0.110738
-0.072579
0.044374
0.146956
0.202611
0.304859
0.338676
0.346716
0.245190
0.020206
0.161784
0.216997
0.233965
0.059532
0.004653
0.095273
0.306922
0.163301
-0.115890
-0.203369
-0.247789
-0.064646
0.130935
0.330815
0.346884
0.418757
0.461650
0.463712
0.464626
0.453891
0.425691
0.396239
0.363842
0.327706
0.321214
0.344630
0.369393
0.370172
0.376808
-0.007097
0.053638
0.141446
0.330057
0.252298
-0.091289
0.091664
0.178700
0.192839
0.147397
0.126305
0.160219
0.160194
0.169642
0.163747
0.142602
0.139494
0.119101
0.102905
0.066305
0.075040
0.190566
0.233000
0.278537
0.340519
0.372813
0.405077
0.413367
0.394903
0.388146
0.335601
0.199973
-0.026060
0.034987
0.042830
0.080234
0.172300
0.271325
0.335460
0.351341
0.309474
0.148116
0.242750
0.188673
0.054405
0.007554
0.127913
0.183481
0.164454
-0.006081
0.052854
0.086531
0.113890
0.159190
0.223776
0.299088
0.346181
0.286601
0.222988
0.201372
0.055186
0.019835
-0.002631
-0.093896
-0.052622
0.067894
0.415365
0.443235
0.455443
0.462115
0.467025
0.468562
0.465104
0.460356
0.447792
0.444709
0.439235
0.431367
0.433180
0.430906
0.434291
0.430705
0.462238
0.484322
0.471726
0.479470
0.437725
0.460219
0.401665
0.365544
0.396301
0.405480
0.347686
0.372822
0.353440
0.355620
0.338019
0.321895
0.330975
0.317695
0.295025
0.261466
0.322908
0.352813
0.389009
0.354471
0.369051
0.315328
0.346935
0.359993
0.338195
0.353546
0.371179
0.344614
0.331140
0.330869
0.352527
0.360821
0.374463
0.358582
0.367976
0.356656
0.387649
0.365178
0.378658
0.374329
0.386047
0.382356
0.413095
0.415700
0.432656
0.434613
0.415449
0.420064
0.421484
0.428238
0.420693
0.411889
0.390514
0.403713
0.406790
0.430900
0.434380
0.442500
0.447280
0.454578
0.434430
0.459303
0.457546
0.466729
0.463839
0.456265
0.471592
0.479223
0.466579
0.468652
0.471911
0.468516
0.451877
0.468874
0.444254
0.456105
0.440975
0.427596
0.425952
0.426223
0.459104
0.438063
0.435270
0.428276
0.406972
0.409224
0.382463
0.366650
0.425519
0.398457
0.363914
0.342633
0.340054
0.362281
0.305200
0.307858
0.283214
0.290908
0.293471
0.278190
0.224878
0.146735
0.059994
-0.159546
0.131915
0.398863
-0.116252
0.105747
0.468843
0.465545
0.367496
0.108301
0.266979
0.387547
0.428544
0.409481
0.332748
0.255469
0.223381
0.170258
0.190643
0.135616
0.067531
0.129562
0.233914
0.250357
0.120859
0.159668
0.094251
0.103492
0.169757
0.088343
0.097579
0.173125
0.236400
0.211346
0.303785
0.387461
0.379601
0.303953
0.296817
0.174960
0.113562
-0.028497
-0.082545
0.010684
0.199281
0.134692
0.096000
0.135260
0.195737
0.279605
0.259532
0.019314
0.337284
0.218410
0.150949
0.064644
-0.002084
0.093427
0.102492
0.211646
0.245411
0.246892
0.302159
0.278012
0.303731
0.248149
0.082873
-0.069021
-0.007352
0.247732
0.274650
0.309629
0.376927
0.424854
0.403095
0.402639
0.360509
-0.042962
-0.138535
-0.136874
-0.124712
-0.012706
0.118129
0.200801
0.267304
0.281823
0.315339
0.352961
0.359152
0.386673
0.376194
0.325555
0.230832
0.141104
0.132141
0.065623
-0.123712
0.113024
0.243332
0.374272
0.448511
0.462573
0.463659
0.464806
0.450697
0.054337
0.378364
0.375086
0.392300
0.404587
0.381892
0.310505
0.272950
0.234743
0.142870
0.008257
-0.007691
0.063446
0.095337
0.137562
0.164731
0.222565
0.301181
0.333095
0.306133
0.281626
0.201621
0.196531
0.211103
0.241467
0.265242
0.172356
0.041144
0.065219
0.079975
0.149629
0.200179
0.235990
0.222533
0.263171
0.283828
0.263573
0.301889
0.036995
-0.015277
-0.026824
-0.077224
0.156326
-0.075059
0.006360
-0.083791
0.085583
0.192991
0.301927
0.395718
0.309360
0.327650
0.242484
0.133479
0.089384
-0.082379
0.399815
-0.003432
-0.164310
-0.189046
-0.215369
-0.171205
-0.153893
-0.107814
-0.194969
-0.163238
-0.121152
0.004681
0.347305
0.408011
0.418880
0.410495
0.351709
0.303851
0.191293
0.062862
0.011655
-0.044737
0.075699
0.277693
0.327578
0.353605
0.356418
0.369317
0.377208
0.403371
0.420206
0.445869
0.457980
0.404337
0.378334
0.370503
0.372191
0.384999
0.403360
0.396210
0.408131
0.431125
0.446294
0.456896
0.462933
0.463892
0.464035
0.460057
0.455790
0.450645
0.431019
0.421532
0.407060
0.394613
0.415464
0.419598
0.454302
0.478181
0.455404
0.443122
0.468540
0.360808
0.366597
0.369350
0.404364
0.372557
0.368922
0.371516
0.381838
0.374646
0.363294
0.344604
0.305535
0.280929
0.235783
0.329914
0.338155
0.375349
0.361866
0.361964
0.341053
0.345357
0.357397
0.327949
0.335619
0.354039
0.362835
0.341417
0.332148
0.352207
0.371310
0.382348
0.353361
0.355337
0.364741
0.382219
0.394289
0.401183
0.358896
0.400966
0.408671
0.420068
0.410644
0.427791
0.428289
0.425048
0.422079
0.420635
0.422646
0.427129
0.417104
0.411323
0.414325
0.446518
0.459366
0.447823
0.446446
0.452316
0.451960
0.454862
0.452959
0.459411
0.465092
0.468840
0.472624
0.480198
0.474130
0.469376
0.473321
0.473031
0.468825
0.465634
0.441846
0.453890
0.436359
0.431095
0.431748
0.439609
0.437987
0.430858
0.419408
0.421378
0.380225
0.377037
0.375573
0.374375
0.390808
0.364450
0.364900
0.346151
0.352940
0.326842
0.302657
0.311340
0.292856
0.323027
0.310031
0.263008
0.227419
0.151712
0.028100
-0.024460
-0.062057
-0.165045
0.465466
0.468839
-0.217869
-0.192611
-0.224630
-0.235934
-0.165438
0.192531
0.131357
0.197835
0.208532
0.206713
0.182272
0.214301
0.159043
0.084621
0.136584
0.353227
0.370292
0.406925
0.418946
0.389929
0.379793
0.329719
0.303478
0.256932
0.224397
0.185795
0.082619
0.041030
0.112150
0.212653
0.163300
0.271412
0.271327
0.297417
0.302466
0.233707
0.286150
0.212212
0.255657
0.261488
0.248423
0.251598
0.264779
0.196678
0.151372
0.144764
0.167123
0.184216
0.220906
0.235230
0.228078
0.258164
0.296009
0.235513
0.193545
-0.219524
-0.153234
-0.270912
-0.030146
0.424404
0.421898
0.389942
0.320191
0.260049
0.168720
0.087343
0.046594
0.048183
0.200877
0.331899
0.372013
0.389706
0.360720
0.378737
0.421548
0.426052
0.443034
0.460685
0.466268
0.140960
0.269587
0.396711
0.457711
0.463690
0.463518
0.446166
0.437272
0.430157
0.434950
0.428041
0.410621
0.402503
0.397262
0.404851
0.421249
0.433152
0.419396
0.423849
0.290798
0.269671
0.147410
0.025884
0.042749
0.214766
0.279055
0.321618
0.361711
0.390949
0.393023
0.394086
0.407206
0.387299
0.355695
-0.084819
-0.125442
-0.141217
-0.154947
0.040449
0.093015
0.185323
0.257648
0.301693
0.333464
0.347462
0.385942
0.381992
0.359770
0.433535
0.442000
0.450321
0.453018
0.453783
0.448974
0.432137
0.405694
0.393819
0.388393
0.392880
0.419741
0.442168
0.446137
0.434535
0.425430
0.419262
0.346076
0.344834
0.362693
0.393167
0.390532
0.383022
0.393078
0.404024
0.400063
0.368283
0.317754
0.319252
0.196255
0.145393
0.244820
0.220615
0.335827
0.368938
0.361790
0.346505
0.334199
0.340318
0.346308
0.330339
0.310620
0.359875
0.360538
0.336333
0.347355
0.373027
0.370260
0.356567
0.379102
0.393359
0.369971
0.414629
0.401382
0.383400
0.394045
0.427000
0.400692
0.426531
0.419182
0.426900
0.420245
0.425055
0.434189
0.428396
0.430451
0.424166
0.432903
0.442030
0.457797
0.473325
0.462911
0.459972
0.456858
0.459833
0.458974
0.460637
0.458457
0.462492
0.457766
0.468926
0.473495
0.468869
0.465142
0.480910
0.478754
0.480071
0.472620
0.479359
0.477131
0.473279
0.459005
0.442828
0.440838
0.434853
0.440041
0.420086
0.446917
0.440482
0.427642
0.426561
0.411790
0.380879
0.369499
0.379260
0.395349
0.373742
0.376765
0.339959
0.343421
0.310494
0.331107
0.289554
0.311927
0.305910
0.328502
0.296869
0.293072
0.225550
0.160773
-0.002141
-0.150376
-0.307495
0.322131
0.358889
0.374867
0.400250
0.395601
0.387109
0.391637
0.355076
0.331786
0.275481
0.250746
0.170351
0.142831
0.086137
0.123340
0.118644
0.180892
0.301702
0.285444
0.304646
0.304646
0.248754
0.273203
0.264179
0.269461
0.260024
0.270006
0.276914
0.244078
0.258126
0.178221
0.156347
0.166414
0.180504
0.208559
0.225777
0.230105
0.250550
0.247205
0.242260
0.249370
0.250274
0.236519
0.102596
0.116577
0.052714
0.039663
0.010930
0.026782
-0.052444
-0.066272
0.095615
0.085614
0.090771
0.129064
0.075612
-0.025283
-0.039205
0.045350
0.031488
0.073806
0.198367
0.299062
0.223245
0.307563
0.109702
0.102002
0.179097
0.181325
0.212627
0.202329
0.211903
0.213898
0.203454
0.190914
0.176004
0.158721
0.137262
0.165624
0.221262
0.280647
0.393845
0.431446
0.455822
0.372657
0.311342
0.308453
0.260159
0.220749
0.178841
0.083005
0.131972
0.224466
0.227817
0.252033
0.264536
0.310356
0.391966
0.363192
0.241059
0.239006
0.185473
0.299111
0.388246
0.407348
0.392377
0.350207
0.318692
0.283866
0.233954
0.196982
0.149722
0.334969
0.290193
0.181713
0.164721
0.161816
0.105292
-0.193936
-0.234470
-0.134643
-0.126097
0.383003
0.357722
0.445995
0.430636
0.416668
0.414267
0.419895
0.428014
0.437052
0.443373
0.438520
0.290372
0.189556
0.094614
0.105714
0.216080
0.284193
0.331211
0.363786
0.368404
0.410601
0.372128
0.403842
0.395133
0.386527
0.371189
0.323036
-0.119417
-0.074507
-0.089833
-0.002161
0.171235
0.169946
0.155331
0.163730
0.178731
0.151816
0.169039
0.180430
0.155084
0.217404
0.222874
0.443854
0.445439
0.440744
0.430382
0.402374
0.402146
0.427659
0.436157
0.399804
0.371242
0.324671
0.347723
0.382719
0.396202
0.407996
0.408792
0.412514
0.433094
0.405857
0.368301
0.337002
0.278465
-0.008971
0.198001
0.163408
0.206410
0.327970
0.376895
0.354872
0.347434
0.348133
0.349095
0.357451
0.358971
0.326706
0.319468
0.369620
0.346824
0.347330
0.358773
0.380542
0.361993
0.386695
0.407989
0.389021
0.420649
0.392241
0.405582
0.388759
0.424886
0.403839
0.432351
0.419608
0.434319
0.425514
0.431788
0.434821
0.435403
0.430138
0.430828
0.436360
0.444954
0.452041
0.449613
0.471823
0.469555
0.466457
0.462577
0.464559
0.466474
0.458712
0.466844
0.166063
0.446599
0.446482
0.440997
0.422691
0.404081
0.351119
0.411938
0.400449
0.416478
0.359961
0.360294
0.408338
0.388823
0.416996
0.420138
0.424118
0.423621
0.430674
0.457716
0.410889
0.370036
0.284433
0.152613
0.170339
0.263664
0.142808
0.266375
0.347874
0.347417
0.355073
0.349956
0.352038
0.346752
0.352526
0.336591
0.325677
0.322242
0.364359
0.364494
0.347497
0.364344
0.370642
0.357525
0.410907
0.401781
0.405231
0.397076
0.410172
0.401162
0.405785
0.408275
0.398424
0.417302
0.419851
0.435809
0.447339
0.447559
0.431936
0.434357
0.432584
0.438903
0.389710
0.467726
0.450570
0.440535
0.470204
0.470583
0.469549
0.467999
0.465209
0.461190
0.468983
0.465051
0.439905
0.434038
0.456906
0.437024
0.399795
0.380841
0.302204
0.228090
0.271783
0.346205
0.398692
0.405296
0.412289
0.342120
0.280831
0.259213
0.290123
0.260752
0.271243
0.217149
0.229273
0.187845
0.213698
0.197918
0.236918
0.174319
0.147527
0.170643
0.175572
0.165147
0.168031
0.163210
0.144173
0.192157
0.162061
0.139010
0.093255
0.086918
0.045602
0.136023
0.047505
0.180200
0.207554
0.236537
0.305122
0.383704
0.433169
0.452663
0.463688
0.415979
0.392793
0.363051
0.366294
0.340680
0.310635
0.304798
0.287425
-0.142947
-0.090049
-0.057188
0.275784
0.352617
0.375103
0.410272
0.411160
0.395899
0.361095
0.302947
0.234696
0.166658
0.095910
0.125263
0.148022
0.257484
0.375509
0.411080
0.400154
0.385326
0.398843
0.420361
0.442968
0.467032
0.466974
0.466020
0.358621
0.384084
0.404281
0.380112
0.439486
0.447177
0.440873
0.439439
0.438703
0.437299
0.435072
0.439787
0.455311
0.419386
0.334484
0.187599
0.265012
0.063324
0.169895
0.258685
0.300908
0.342298
0.353233
0.355854
0.355876
0.331736
0.341738
0.342068
0.353791
0.334960
0.341394
0.368956
0.358961
0.339884
0.354427
0.377859
0.376977
0.405288
0.413108
0.404225
0.396892
0.416553
0.420176
0.411648
0.418985
0.408850
0.407584
0.424011
0.448757
0.454456
0.446782
0.440689
0.442863
0.438372
0.444887
0.402055
0.393775
0.391390
0.411269
0.450802
0.471223
0.472830
0.470791
0.466938
0.463166
0.466355
0.472622
0.470209
0.464474
0.473385
0.483822
0.479657
0.482262
0.473654
0.483600
0.479020
0.466699
0.457530
0.458878
0.437264
0.446312
0.442871
0.431221
0.446589
0.432380
0.433460
0.411677
0.412950
0.376281
0.385207
0.384712
0.379490
0.355280
0.384973
0.318789
0.312979
0.331715
0.322599
0.328043
0.322287
0.328587
0.321250
0.300975
0.295779
0.254349
0.185139
0.033702
0.397420
0.447285
0.056018
0.123319
0.178736
0.223056
0.288389
0.252307
0.263714
0.276501
0.278988
0.123162
0.169858
0.238478
0.293397
0.334053
0.374218
0.360082
0.425698
0.411273
0.400151
0.388338
0.393432
0.376462
0.357307
0.299182
-0.112845
-0.007351
-0.043734
0.018076
0.103011
0.135564
0.227466
0.308071
0.359078
0.344136
0.372368
0.377422
0.343155
0.340781
0.184442
0.263026
0.133192
0.304758
0.234758
0.203047
0.225588
0.187579
0.238880
0.243353
0.232718
0.220063
0.210722
0.207374
0.214416
0.240454
0.303293
0.479029
0.480333
0.476150
0.483696
0.476741
0.481600
0.474302
0.468513
0.460568
0.458976
0.439261
0.430724
0.447106
0.449421
0.447613
0.441678
0.431234
0.410321
0.413486
0.395381
0.390605
0.392773
0.381422
0.388434
0.359913
0.325941
0.330017
0.333083
0.340486
0.331526
0.342419
0.348744
0.331476
0.331920
0.309259
0.258537
0.202856
0.104198
0.464427
0.433453
0.428513
0.383298
0.339954
0.308215
0.280518
0.305460
0.361884
0.393379
0.399927
0.401998
0.350141
0.329558
0.285237
0.332357
0.312500
0.293322
0.254071
0.228242
0.219161
0.222383
0.224152
0.226116
0.205285
0.177324
0.206731
0.225071
0.230829
0.226174
0.221216
0.237743
0.259582
0.262641
0.268753
0.259470
0.259722
0.251242
0.305408
0.159545
0.190789
0.086177
0.232069
0.108010
0.174262
0.299077
0.351245
0.401414
0.351933
0.335973
0.360338
0.399003
0.421204
0.455972
0.455095
0.262647
0.318685
0.363156
0.365141
0.398431
0.428314
0.422976
0.411805
0.420149
0.425818
0.434595
0.443758
0.447267
0.448117
0.458605
0.432882
0.416509
0.086858
0.091225
0.158938
0.237475
0.249577
0.239664
0.293297
0.308226
0.290594
0.337453
0.340050
0.297795
0.264623
0.225390
0.205181
0.190209
0.212464
0.279156
0.310527
0.324780
0.325246
0.337550
0.297667
0.235440
0.266731
0.205468
0.309539
0.350189
0.361360
0.391158
0.379161
0.398848
0.399230
0.387105
0.380575
0.368843
0.307998
0.132653
-0.090250
0.032428
0.031072
0.069756
0.119410
0.151204
0.237778
0.309076
0.326281
0.379594
0.363344
0.352913
0.358539
0.315863
0.306529
0.250821
0.259721
0.237986
0.230975
0.246765
0.275996
0.300248
0.296620
0.310330
0.283006
0.292683
0.261961
0.281300
0.260224
0.169617
0.171974
0.153951
0.270376
0.270121
0.125802
0.210550
0.286592
0.170555
0.165800
0.243148
0.266354
0.260426
0.257809
0.252508
0.253590
0.269381
0.271936
0.310031
0.350062
0.376961
0.400985
0.382519
0.383368
0.362214
0.342212
0.292716
0.295591
0.252814
0.205194
0.129648
0.155037
0.184038
0.177081
0.223018
0.178242
0.258407
0.265997
0.269184
0.255960
0.280557
0.284863
0.258916
0.298574
0.318053
0.310477
0.280923
0.246828
0.366843
0.343873
0.272323
0.223799
0.184718
0.138740
0.177857
0.212378
0.296320
0.387102
0.419683
0.429407
0.442310
0.459357
0.462455
0.463221
0.414285
0.435158
0.131441
0.117123
0.112336
0.158494
0.226960
0.233948
0.272900
0.312093
0.298150
0.311411
0.325939
0.314177
0.333533
0.262740
0.287002
0.289365
0.284037
0.292584
0.293602
0.296078
0.315341
0.323062
0.311957
0.349454
0.383348
0.394548
0.385449
0.411976
0.358048
0.340464
0.349631
0.332324
0.285663
0.262252
0.277316
0.248008
0.195556
0.219818
0.232788
0.247902
0.232704
0.307171
0.297753
0.303291
0.300311
0.303665
0.287583
0.324405
0.298715
0.304353
0.302375
0.283708
0.288765
0.238075
0.397643
0.382769
0.386690
0.395317
0.376336
0.363902
0.369777
0.378813
0.456438
0.445214
0.447870
0.412859
0.379360
0.346155
0.368945
0.325831
0.370765
0.390860
0.403051
0.394974
0.358297
0.325097
0.345137
0.334584
0.335829
0.318283
0.278343
0.244430
0.218338
0.209648
0.216145
0.201987
0.198086
0.188790
0.333420
0.337374
0.344214
0.342170
0.313038
0.333309
0.257529
0.255974
0.364928
0.393682
0.408845
0.404470
0.395640
0.391406
0.363800
0.380340
0.378786
0.392788
0.246232
0.073890
-0.119069
0.013682
0.056407
0.114738
0.159166
0.188790
0.223885
0.250973
0.354171
0.353865
0.360572
0.374266
0.386903
0.363717
0.348470
0.313304
0.472237
0.474968
0.477940
0.479587
0.481883
0.477305
0.481064
0.468428
0.463305
0.443429
0.433129
0.448639
0.451703
0.456396
0.446075
0.412787
0.408267
0.407404
0.386191
0.405597
0.394841
0.385369
0.393835
0.349462
0.338027
0.335223
0.332732
0.332401
0.332188
0.347760
0.336508
0.293335
0.341144
0.313529
0.273404
0.226928
0.081375
0.412582
0.422350
0.426455
0.450679
0.465662
0.471352
0.460818
0.470673
0.244676
0.285651
0.329166
0.396862
0.415387
0.427673
0.430750
0.441612
0.456826
0.461997
0.443602
0.433289
0.358079
0.344556
0.360182
0.366477
0.364888
0.412464
0.404978
0.401147
0.433747
0.434998
0.444862
0.460785
0.472237
0.473887
0.460407
0.421056
0.409345
0.427973
0.439558
0.446221
0.412192
0.387510
0.361162
0.350018
0.328783
0.367240
0.342083
0.376252
0.313424
0.273803
0.212194
0.194792
0.204447
0.214485
0.255161
0.343125
0.373949
0.382083
0.412845
0.413764
0.419065
0.432875
0.432963
0.442830
0.454987
0.458435
0.188462
0.171008
0.186778
0.131539
0.114070
0.162303
0.372345
0.411002
0.418341
0.429848
0.429833
0.418986
0.224794
0.331403
0.344608
0.300594
0.301003
0.327590
0.329919
0.346716
0.349195
0.321848
0.311227
0.319003
0.334846
0.336689
0.308989
0.331764
0.367391
0.329924
0.362440
0.389253
0.390028
0.362794
0.398082
0.400160
0.419397
0.411043
0.415919
0.425275
0.424347
0.404499
0.416575
0.419394
0.436308
0.447741
0.321052
0.338909
0.345374
0.364616
0.357300
0.344071
0.334251
0.293458
0.266369
0.287356
0.394949
0.403696
0.415478
0.414503
0.397503
0.393165
0.356264
0.382796
0.361362
0.367731
0.352979
0.379361
0.259461
0.037233
0.061144
0.125142
0.107681
0.197091
0.220588
0.236287
0.279676
0.326011
0.341596
0.349233
0.362523
0.370274
0.379681
0.370387
0.345597
0.315839
0.412488
0.438324
0.442177
0.448548
0.461920
0.471924
0.473887
0.464221
0.456489
0.456639
0.464458
0.474266
0.439195
0.440787
0.426276
0.487229
0.469752
0.447131
0.470846
0.464610
0.455409
0.299720
0.323899
0.328601
0.308212
0.323430
0.313327
0.316750
0.330819
0.315014
0.324926
0.308676
0.318725
0.236146
0.261528
0.245556
0.316385
0.006888
0.310715
0.469714
0.466307
0.158163
0.193086
0.216310
0.271602
0.268217
0.294072
0.298495
0.290150
0.305768
0.327136
0.470859
0.449131
0.438653
0.418716
0.396024
0.339654
0.348165
0.365579
0.381667
0.387830
0.388626
0.395246
0.361619
0.359908
0.379448
0.353084
0.356988
0.347287
0.337906
0.309377
0.284348
0.252767
0.230819
0.191875
0.188772
0.471758
0.478096
0.472006
0.480997
0.480713
0.479844
0.483650
0.466780
0.464212
0.480087
0.463909
0.465272
0.455634
0.441124
0.427435
0.456790
0.459172
0.459944
0.440454
0.422441
0.413982
0.407356
0.412344
0.394571
0.379876
0.385162
0.371461
0.343168
0.338079
0.331803
0.336304
0.332712
0.315331
0.356419
0.350211
0.372186
0.329679
0.345663
0.328088
0.275672
0.221871
0.216546
0.250568
0.275968
0.311986
0.358064
0.439338
0.456696
0.465941
0.452640
0.449357
0.440608
0.436311
0.425158
0.420599
0.423624
0.405114
0.396470
0.445938
0.456013
0.450749
0.466922
0.461115
0.461760
0.463339
0.468355
0.475991
0.472149
0.480134
0.479829
0.478390
0.478891
0.475468
0.468412
0.471289
0.467049
0.484755
0.194962
0.194075
0.317324
0.311054
0.311271
0.320779
0.327419
0.336257
0.335399
0.342982
0.374284
0.392639
0.372098
0.387543
0.379133
0.349668
0.304809
0.358110
0.308819
0.335145
0.302056
0.250184
0.227509
0.255555
0.230255
0.248588
0.275095
0.290981
0.319719
0.279695
0.319030
0.296523
0.328054
0.303818
0.301119
0.289270
0.478855
0.474819
0.462023
0.469106
0.471244
0.460523
0.443644
0.443933
0.455813
0.457354
0.466266
0.429643
0.443841
0.408551
0.410310
0.423020
0.384127
0.415406
0.385282
0.372377
0.343347
0.331483
0.326152
0.325112
0.317028
0.308531
0.487398
0.347481
0.363609
0.359216
0.355159
0.378342
0.368141
0.368460
0.332067
0.333316
0.296570
0.305210
0.394486
0.397816
0.408976
0.426058
0.417244
0.399492
0.373934
0.391691
0.371790
0.384729
0.370471
0.400093
0.366276
0.466363
0.305362
0.076810
0.026276
0.102237
0.145982
0.186494
0.238873
0.207464
0.343870
0.270010
0.320311
0.319853
0.335325
0.340418
0.312224
0.324924
0.328333
0.322503
0.326402
0.319681
0.311957
0.347830
0.328585
0.371901
0.398824
0.391037
0.368599
0.396124
0.418704
0.418871
0.411462
0.390062
0.420393
0.439631
0.423180
0.400489
0.409752
0.426423
0.337058
0.282471
0.307734
0.336331
0.317966
0.324793
0.323700
0.338768
0.336882
0.343052
0.313527
0.333621
0.302067
0.340524
0.342193
0.334446
0.378745
0.380487
0.373586
0.380202
0.399673
0.415179
0.414644
0.415803
0.400654
0.425065
0.446235
0.417587
0.421713
0.425739
0.408574
0.427927
0.430993
0.453619
0.445158
0.456562
0.455217
0.446370
0.444143
0.428617
0.429590
0.432241
0.368585
0.396109
0.436094
0.413244
0.447955
0.471837
0.473116
0.461376
0.464295
0.468064
0.458279
0.458234
0.464035
0.468816
0.468872
0.481209
0.478225
0.474133
0.474054
0.481850
0.197371
0.200449
0.225900
0.228535
0.178241
0.186515
0.458252
0.459210
0.443671
0.431223
0.404735
0.394208
0.378723
0.366348
0.384401
0.389699
0.379457
0.398839
0.411156
0.397152
0.378591
0.387678
0.362282
0.387054
0.377207
0.369927
0.347753
0.324148
0.298541
0.286122
0.230426
0.321328
0.333989
0.270914
0.240595
0.257999
0.295683
0.312813
0.336150
0.382497
0.387644
0.409793
0.416507
0.437499
0.434013
0.451684
0.296704
0.297221
0.298835
0.293522
0.319800
0.328656
0.343734
0.327767
0.318887
0.318514
0.307906
0.322177
0.215117
0.347098
0.276657
0.278628
0.320933
0.334268
0.345986
0.354187
0.357356
0.380268
0.391159
0.379998
0.381091
0.379585
0.319498
0.330105
0.386613
0.392867
0.409851
0.425835
0.436702
0.435038
0.416069
0.427024
0.397554
0.405232
0.358998
0.400274
0.386739
0.382045
0.388235
0.440608
0.459153
0.145199
0.096269
0.089303
0.174550
0.224068
0.207209
0.264704
0.315588
0.335086
0.344942
0.353578
0.362722
0.376982
0.381409
0.371370
0.348079
0.266799
0.374855
0.293279
0.312406
0.324618
0.322312
0.335682
0.326361
0.346525
0.349434
0.349822
0.357754
0.372685
0.350187
0.361338
0.368390
0.352332
0.364644
0.352038
0.328020
0.310918
0.320500
0.323971
0.333314
0.307162
0.323565
0.234704
0.257483
0.259433
0.256627
0.251172
0.279861
0.294740
0.297327
0.279227
0.319709
0.323087
0.340561
0.321356
0.305979
0.268308
0.329573
0.292262
0.462882
0.462411
0.461540
0.452404
0.448859
0.454248
0.456912
0.469375
0.434026
0.439963
0.429737
0.411800
0.420757
0.406426
0.403827
0.393040
0.351599
0.348652
0.320240
0.318666
0.292308
0.294793
0.444658
0.447085
0.453641
0.452941
0.445692
0.434621
0.416610
0.441134
0.416763
0.312394
0.407421
0.372192
0.448081
0.421814
0.455836
0.458704
0.456380
0.463547
0.470835
0.469913
0.461722
0.457765
0.454751
0.463754
0.463028
0.479845
0.477050
0.466896
0.478694
0.480898
0.453324
0.478950
0.456263
0.461598
0.458983
0.457006
0.425492
0.446100
0.436508
0.412611
0.399033
0.384343
0.389374
0.386446
0.386222
0.399519
0.404319
0.393635
0.392764
0.407151
0.392776
0.392282
0.397031
0.375192
0.365948
0.357700
0.350430
0.332695
0.301816
0.295679
0.317053
0.322146
0.305073
0.330787
0.309468
0.307511
0.312254
0.313594
0.306816
0.295372
0.359750
0.348232
0.349722
0.357116
0.358777
0.346524
0.391395
0.365638
0.357628
0.374232
0.354888
0.372946
0.364853
0.381440
0.330462
0.356859
0.357146
0.308661
0.322884
0.287821
0.360581
0.265637
0.244301
0.280676
0.237754
0.263456
0.284014
0.280301
0.286315
0.320425
0.323107
0.300678
0.331237
0.312567
0.289980
0.270078
0.338671
0.279300
0.342745
0.304462
0.250355
0.255942
0.274782
0.301363
0.320091
0.374178
0.375297
0.386915
0.406699
0.425611
0.428895
0.443349
0.439648
0.448392
0.321679
0.335687
0.354951
0.355467
0.367930
0.382344
0.386117
0.406062
0.404831
0.385638
0.379969
0.378451
0.359815
0.380382
0.387314
0.431617
0.435463
0.439055
0.444087
0.429074
0.421047
0.375891
0.424778
0.356035
0.441558
0.408871
0.396897
0.399219
0.425727
0.465137
0.435281
0.393373
0.319748
0.290506
0.169503
0.130115
0.139181
0.222744
0.210995
0.258796
0.276627
0.314476
0.322902
0.340531
0.358061
0.364649
0.364481
0.370263
0.373044
0.372855
0.468693
0.464304
0.459305
0.459693
0.461753
0.460630
0.474343
0.470886
0.472675
0.476394
0.479226
0.461919
0.466186
0.449037
0.457406
0.463378
0.462101
0.335217
0.352641
0.303531
0.352950
0.349138
0.382584
0.390610
0.350518
0.363714
0.403717
0.397112
0.405913
0.423006
0.406461
0.412584
0.435325
0.412337
0.425727
0.412973
0.452400
0.456631
0.442201
0.422645
0.433641
0.418136
0.422428
0.415303
0.407017
0.407251
0.394092
0.408340
0.409081
0.390069
0.395767
0.398878
0.398010
0.410696
0.394693
0.275829
0.292184
0.291575
0.308422
0.356092
0.367840
0.365421
0.391455
0.422038
0.425090
0.423203
0.411549
0.455711
0.338482
0.318874
0.318062
0.309358
0.360884
0.354736
0.362532
0.356626
0.365916
0.403484
0.443158
0.452709
0.459669
0.464776
0.220713
0.192584
0.224919
0.212773
0.236708
0.253938
0.296647
0.310309
0.314604
0.333742
0.359925
0.363487
0.362440
0.366102
0.371135
0.368300
0.366720
0.333658
0.319554
0.322788
0.326585
0.350605
0.369353
0.380532
0.345896
0.385866
0.394462
0.400159
0.429335
0.415540
0.403445
0.412652
0.417845
0.421590
0.420440
0.431341
0.443304
0.447295
0.453157
0.452754
0.444019
0.423896
0.403398
0.432907
0.363255
0.414075
0.413009
0.412534
0.433386
0.460903
0.461155
0.453547
0.455709
0.464938
0.423137
0.433019
0.442574
0.422343
0.422709
0.413269
0.417975
0.395430
0.347127
0.326870
0.285602
0.256606
0.265878
0.290014
0.269952
0.286147
0.465205
0.462591
0.458325
0.466911
0.475370
0.473610
0.460749
0.469965
0.469428
0.469325
0.457485
0.461647
0.459661
0.455198
0.471988
0.448133
0.461289
0.462751
0.454091
0.453001
0.457039
0.444050
0.440273
0.430827
0.432163
0.422717
0.419693
0.412311
0.391509
0.369981
0.350164
0.452411
0.456344
0.456946
0.444358
0.439514
0.439563
0.427531
0.425463
0.410767
0.405772
0.273021
0.269178
0.318782
0.324997
0.283048
0.364092
0.332019
0.266639
0.353235
0.329136
0.336164
0.361633
0.362304
0.360360
0.365675
0.362538
0.361552
0.342143
0.355643
0.349843
0.361311
0.365217
0.379754
0.334336
0.324707
0.320110
0.361298
0.394246
0.404437
0.428368
0.438087
0.424963
0.441153
0.458448
0.468935
0.457272
0.420290
0.400299
0.415971
0.410641
0.416785
0.417647
0.395733
0.397955
0.402219
0.411945
0.417928
0.405829
0.398677
0.391409
0.290876
0.347514
0.318002
0.355761
0.358229
0.398896
0.355169
0.381640
0.393995
0.406591
0.405536
0.421190
0.404514
0.410141
0.423259
0.424286
0.431560
0.424269
0.439091
0.448741
0.454630
0.454899
0.448685
0.434076
0.419935
0.418591
0.377660
0.445525
0.428904
0.413082
0.394207
0.439221
0.444821
0.456874
0.460328
0.459460
0.464168
0.463526
0.466019
0.466669
0.482022
0.481418
0.452212
0.466559
0.461265
0.459980
0.365564
0.386550
0.349219
0.276923
0.274160
0.230528
0.227851
0.234099
0.274701
0.304304
0.326042
0.340990
0.349297
0.359388
0.355929
0.371116
0.372594
0.370526
0.364173
0.324131
0.404788
0.423100
0.431819
0.439411
0.440750
0.444932
0.441722
0.436965
0.412326
0.429292
0.385485
0.391883
0.428247
0.421684
0.418111
0.424043
0.425631
0.440657
0.444398
0.443626
0.433926
0.443187
0.435445
0.456057
0.438554
0.433284
0.427365
0.410906
0.402957
0.427655
0.421810
0.406105
0.412186
0.374504
0.408073
0.395889
0.413418
0.433001
0.420415
0.412635
0.284770
0.301070
0.254154
0.296646
0.300240
0.292555
0.292371
0.315917
0.334786
0.349270
0.345082
0.351428
0.362737
0.454108
0.458022
0.453214
0.463761
0.452411
0.458543
0.449322
0.458712
0.450921
0.453570
0.452744
0.456994
0.435946
0.432447
0.351951
0.334061
0.369387
0.368313
0.367200
0.381781
0.381315
0.382361
0.414228
0.419013
0.409071
0.421557
0.434137
0.421940
0.429749
0.439930
0.452901
0.455768
0.456381
0.450567
0.442684
0.431906
0.409780
0.399064
0.365663
0.397690
0.404273
0.370566
0.424905
0.420917
0.444773
0.443959
0.450335
0.457617
0.455310
0.461206
0.460978
0.461223
0.465841
0.472336
0.486008
0.447458
0.456898
0.466375
0.445561
0.352534
0.354578
0.328054
0.344520
0.336023
0.356514
0.341380
0.314883
0.360733
0.373321
0.356419
0.351241
0.357311
0.328659
0.286252
0.293829
0.410323
0.435702
0.423623
0.446442
0.430219
0.448310
0.453805
0.435397
0.341024
0.297307
0.326319
0.364354
0.361347
0.359035
0.353503
0.365391
0.372724
0.369280
0.326794
0.363494
0.352269
0.352725
0.346476
0.402681
0.404073
0.372578
0.410641
0.417835
0.404422
0.395285
0.426055
0.427117
0.428742
0.439018
0.453639
0.456187
0.458419
0.454990
0.446722
0.430222
0.412887
0.415125
0.406242
0.368587
0.421186
0.386082
0.385709
0.413912
0.437905
0.449481
0.419231
0.431901
0.452827
0.458401
0.458280
0.456521
0.463305
0.466986
0.471531
0.463066
0.453501
0.451064
0.473064
0.459246
0.463969
0.315418
0.314120
0.315592
0.303258
0.301836
0.329519
0.315888
0.338394
0.312971
0.422554
0.394841
0.389604
0.400455
0.455469
0.435837
0.449684
0.448950
0.405415
0.461745
0.444317
0.445144
0.441299
0.457679
0.442939
0.452888
0.436591
0.424191
0.422768
0.424718
0.414771
0.412281
0.405185
0.417756
0.405579
0.422116
0.401249
0.404833
0.383956
0.420846
0.430610
0.426101
0.442280
0.444977
0.376949
0.358196
0.354550
0.323778
0.363474
0.359620
0.317785
0.336681
0.408041
0.374723
0.361636
0.360821
0.376235
0.332048
0.440942
0.450015
0.452705
0.457545
0.447627
0.448755
0.471277
0.464114
0.458200
0.461401
0.447492
0.445327
0.446205
0.460545
0.453775
0.293751
0.292578
0.282591
0.281312
0.413217
0.446130
0.374079
0.381205
0.383286
0.399693
0.407177
0.453221
0.458726
0.431539
0.377046
0.340522
0.329918
0.314834
0.313780
0.336263
0.373895
0.348369
0.381794
0.390121
0.379104
0.397818
0.382994
0.403704
0.398595
0.418650
0.393679
0.417110
0.422292
0.426370
0.438038
0.448871
0.452944
0.459673
0.455906
0.447466
0.428550
0.424112
0.417344
0.435764
0.364394
0.440699
0.412195
0.429971
0.421658
0.409734
0.409230
0.403642
0.411750
0.398870
0.430686
0.414483
0.433453
0.441810
0.451196
0.447499
0.438280
0.436292
0.436788
0.447790
0.450978
0.446101
0.441706
0.449503
0.359823
0.459050
0.446298
0.457134
0.452813
0.434204
0.442753
0.455085
0.460853
0.442357
0.468644
0.456378
0.468964
0.456061
0.452579
0.450806
0.438183
0.445850
0.443680
0.430888
0.452961
0.419270
0.416513
0.423494
0.399690
0.407256
0.420156
0.432152
0.432242
0.448810
0.454619
0.370477
0.360311
0.342766
0.362588
0.365075
0.378282
0.350916
0.362310
0.356847
0.366522
0.340241
0.335618
0.314402
0.433545
0.424796
0.417658
0.430586
0.382694
0.432141
0.428278
0.435674
0.324308
0.324083
0.309686
0.317877
0.332745
0.429176
0.358637
0.366385
0.350721
0.363822
0.363991
0.390096
0.391932
0.406777
0.404470
0.416566
0.417550
0.422909
0.433125
0.440951
0.446427
0.455631
0.456284
0.449368
0.441437
0.430050
0.428777
0.413048
0.353751
0.408689
0.382640
0.466753
0.369926
0.403967
0.431679
0.424809
0.445716
0.455341
0.453331
0.454615
0.463012
0.461520
0.458485
0.463029
0.448485
0.441435
0.457927
0.426138
0.446472
0.450030
0.454890
0.433749
0.401762
0.378100
0.361196
0.354143
0.355882
0.346183
0.440501
0.440196
0.455837
0.458557
0.439147
0.420039
0.398110
0.390065
0.384253
0.386788
0.378479
0.351589
0.368330
0.455872
0.447215
0.442574
0.443561
0.442423
0.447539
0.448627
0.439844
0.441565
0.445821
0.459732
0.440748
0.377179
0.352732
0.381591
0.374934
0.393942
0.404792
0.382939
0.383367
0.367906
0.383334
0.357195
0.319702
0.353186
0.339884
0.405413
0.439608
0.453848
0.455901
0.451180
0.449922
0.447435
0.450776
0.453304
0.450596
0.460078
0.448315
0.434655
0.419416
0.413347
0.406270
0.399803
0.376139
0.381987
0.369362
0.362851
0.338361
0.362539
0.388328
0.385319
0.404640
0.390864
0.413323
0.389253
0.381077
0.368820
0.395612
0.413459
0.366412
0.372257
0.395281
0.404245
0.413870
0.422940
0.430343
0.436385
0.351350
0.420408
0.395193
0.398489
0.415080
0.457186
0.391540
0.395021
0.367753
0.402400
0.393393
0.283007
0.264080
0.227019
0.259368
0.110189
0.107441
0.214528
0.351691
0.108747
0.132755
0.037840
0.035634
0.402934
0.374106
0.407713
0.144060
0.112566
0.100822
0.100249
-0.078483
0.059368
0.045438
0.380442
0.349295
0.340560
0.385349
0.431381
0.447694
0.337810
0.370300
0.384363
0.408644
0.428489
0.463596
0.449779
0.441918
0.228640
0.216035
0.220224
0.208985
0.221188
0.245442
0.222167
0.251120
0.270013
0.292269
0.237468
0.252681
0.256558
0.282304
0.323152
0.297220
0.296398
0.301389
0.430872
0.412950
0.436407
0.430471
0.401116
0.412707
0.353063
0.334959
0.441735
0.444813
0.451571
0.450168
0.452529
0.451502
0.455503
0.449629
0.444335
0.457864
0.377090
0.358334
0.377395
0.453493
0.456430
0.460235
0.370328
0.364330
0.364530
0.346425
0.352699
0.364371
0.383041
0.374207
0.360139
0.142258
0.238320
0.351178
0.004941
-0.041458
0.023407
0.212852
0.104597
0.368166
0.360125
0.366583
0.381995
0.349938
0.316885
0.263506
-0.017708
-0.159767
-0.262126
-0.278352
-0.228413
0.032449
0.178075
0.179015
0.167121
0.218659
0.217882
0.016709
0.046688
0.123349
0.118808
0.121248
0.184418
-0.058265
0.117879
-0.060202
-0.025755
-0.134472
0.059180
0.190882
0.143157
0.230503
0.218731
0.143578
0.193474
0.091656
0.139277
0.003851
0.035057
-0.011455
0.074748
-0.090053
-0.052498
0.139272
-0.019899
-0.013192
0.014883
-0.048620
0.024290
-0.030851
-0.012628
0.077909
0.162754
0.046643
0.078706
-0.009772
-0.077893
-0.040522
-0.052206
0.009518
0.098448
0.105715
0.193865
0.254937
0.251689
0.160015
0.278362
0.289420
0.296932
0.312386
0.321827
0.329723
0.331241
0.325913
0.322296
0.293840
0.290801
0.301366
0.268507
0.255094
0.261741
0.256077
0.223812
0.118089
0.134836
0.179500
0.089955
0.043113
0.110161
0.268941
0.319920
0.319462
0.325778
0.336679
0.343501
0.346609
0.348599
0.350892
0.350504
0.350333
0.347804
0.344068
0.331586
0.322570
0.334232
0.325844
0.319467
0.282736
0.314657
0.293487
0.300885
0.258524
0.276573
0.239793
0.300149
0.190901
0.197079
0.293379
0.259339
0.281518
0.212844
0.235547
0.235348
0.207393
0.231376
0.239327
0.195205
0.204798
0.227007
0.239885
0.284738
0.287266
0.300651
0.291690
0.318010
0.301922
0.304382
0.310350
0.292749
0.304796
0.288605
0.258037
0.277713
0.249899
0.256636
0.226015
0.231846
0.216598
0.235059
0.208243
0.182882
0.247877
0.169163
0.180339
0.080123
0.095945
0.165809
0.101416
0.194817
0.039036
0.117039
0.139328
0.121156
0.181242
0.183798
0.176542
0.201888
0.248197
0.234628
0.276266
0.267579
-0.200638
-0.133788
-0.238709
-0.189445
-0.022934
-0.033621
-0.079131
-0.038803
-0.040776
0.139892
0.128104
0.145945
-0.200991
-0.202815
-0.088755
0.073871
0.132909
0.114388
0.151095
0.272738
0.210369
0.001237
-0.134416
-0.090669
0.179936
0.103585
0.150049
0.204722
0.256260
0.194785
0.227434
0.181885
0.162209
0.178174
0.241963
0.158406
0.049188
0.057875
-0.181608
-0.272458
0.138905
0.192821
0.231800
0.234267
0.249921
0.174459
-0.017079
-0.104403
0.174323
0.111417
0.178401
0.175879
0.201991
0.150120
0.092167
0.080887
0.097710
0.110448
0.189032
0.023989
0.123516
0.057412
0.170343
0.173351
0.121431
0.095654
0.200167
0.179278
-0.052034
-0.033922
-0.116403
0.043724
0.155033
0.034480
-0.057258
-0.066709
0.078991
-0.035963
0.071897
0.189276
0.172591
0.193238
0.116875
-0.001091
-0.094697
-0.085176
-0.099349
-0.109595
0.036296
0.126819
0.210990
0.263569
0.280490
0.278597
0.228935
0.075591
-0.232383
-0.284329
-0.281108
-0.184532
-0.030412
0.305253
0.309318
0.310368
0.309219
0.293399
0.300867
0.277661
0.198909
0.263748
0.319460
0.274723
0.291578
0.285271
0.268061
0.245938
0.215100
0.205673
0.220877
0.203121
0.187462
0.215379
0.218409
0.237498
0.263862
0.297721
0.301193
0.280478
0.322482
0.320854
0.310988
0.290793
0.312123
0.294487
0.280436
0.265626
0.250803
0.249305
0.234102
0.223941
0.221228
0.222799
0.199479
0.174108
0.183085
0.148904
0.156191
0.107876
0.106860
0.102906
0.122064
0.093150
0.044571
0.122832
0.106412
0.135475
0.181527
0.175172
0.202112
0.220526
0.254016
0.264376
0.296334
0.318431
0.326013
-0.097716
0.020114
0.014669
0.122081
0.196193
0.088400
-0.071930
-0.168180
-0.138215
0.047504
0.275245
0.294558
0.250324
0.200012
0.075213
0.135012
-0.140749
-0.133067
0.069206
0.131957
0.207861
0.256059
0.315562
0.277271
0.243009
0.258781
0.126003
0.135052
-0.083867
0.255687
-0.028402
0.051963
0.045750
0.101588
0.130767
0.027183
-0.075038
-0.137730
-0.112526
-0.081421
0.230512
0.270299
0.253397
0.069921
-0.072559
-0.089314
-0.197373
-0.098715
0.025616
0.222791
0.236498
0.329331
0.304500
0.285533
0.249201
0.240971
0.214059
0.155523
0.121484
0.141113
0.224737
0.191789
0.272733
0.245666
0.302523
0.323048
0.334877
0.338396
0.331814
0.329812
0.328927
0.330966
0.315766
0.311866
0.304134
0.313335
0.317982
0.325453
0.310080
0.319242
0.277148
0.273393
0.278519
0.237930
0.198270
0.232576
0.191239
0.156991
0.190900
0.113568
0.028385
0.219361
0.162106
0.192848
0.175469
0.190926
0.219241
0.220463
0.314461
0.262869
0.233283
0.120532
0.137661
0.145649
0.165787
0.189144
0.168111
0.098953
0.046689
0.021748
-0.054384
-0.071937
-0.070296
0.050455
0.097961
0.118799
0.092872
0.053132
0.101050
0.096996
0.162185
0.153943
0.140681
0.146918
0.060293
-0.012641
-0.042915
-0.087989
-0.141593
0.037531
0.141308
0.156961
0.242062
0.285872
0.283352
0.288597
0.259824
0.206028
0.094640
-0.204766
-0.191466
0.093288
0.073664
0.280212
0.294968
0.294170
0.291392
0.302249
0.277570
0.279842
0.249117
0.242873
0.256726
0.173275
0.163980
0.108562
0.130307
0.072096
0.153815
0.081830
0.030612
-0.173602
-0.122472
-0.097486
0.031121
0.074480
-0.069926
0.010184
0.152610
0.237355
0.251141
0.311703
0.317946
0.314401
0.316962
0.322644
0.193599
0.205116
0.251487
0.226798
0.260076
0.285758
0.273582
0.227450
0.211345
0.190193
0.213367
0.188160
0.208117
0.216698
0.231325
0.241184
0.283398
0.298212
0.295147
0.323259
0.325577
0.330328
0.321659
0.322774
0.320799
0.327679
0.309053
0.306791
0.287882
0.271978
0.265636
0.258693
0.251289
0.233253
0.219867
0.204649
0.199683
0.167255
0.156143
0.176327
0.160850
0.148854
0.103686
0.118786
0.134463
0.094068
0.076792
0.061741
0.108885
0.134855
0.169582
0.191491
0.187763
0.213779
0.250594
0.274917
0.015798
0.139101
0.072442
0.024938
-0.062248
-0.031066
-0.082197
-0.102943
0.179365
0.249543
0.270931
0.186847
0.041510
-0.094879
-0.140175
-0.064683
0.182187
0.265429
0.286676
0.318086
0.303522
0.269599
0.257922
0.218601
0.182702
0.205925
0.122712
0.269804
0.233811
0.164335
0.214631
0.268481
0.312362
0.311965
0.319440
0.321459
0.326001
0.319780
0.309611
0.318448
0.069211
0.005624
0.285458
0.246307
0.200873
0.179822
0.030474
0.164053
0.147357
0.159218
0.157805
0.133874
0.038480
0.033515
0.108712
0.082388
0.083952
-0.052051
-0.046656
-0.086697
0.290295
0.136505
-0.026927
0.077944
0.156562
0.155312
0.181662
0.166940
0.187440
0.085200
0.046983
0.014622
0.079155
0.086017
0.084982
-0.120209
-0.061521
-0.034061
0.014896
0.078077
0.082108
0.089974
0.110161
0.164869
0.175703
0.208601
0.185981
0.108820
0.024635
-0.005897
-0.042044
-0.199837
0.011844
0.119779
0.196189
0.199726
0.258980
0.297416
0.289314
0.282569
0.287177
0.249879
0.231328
0.182371
0.070817
0.232364
0.305911
0.331745
0.323939
0.298998
0.334173
0.305646
0.161687
0.227756
0.214952
0.248277
0.262166
0.244222
0.197904
0.199659
0.172798
0.187118
0.217581
0.224887
0.241311
0.276266
0.288317
0.295365
0.313925
0.329666
0.319438
0.324560
0.325787
0.334306
0.327869
0.332282
0.312808
0.310998
0.303406
0.285809
0.270415
0.259538
0.260296
0.245687
0.228626
0.220686
0.217877
0.196111
0.174717
0.150522
0.120815
0.146834
0.166801
0.132363
0.181325
0.091870
0.065096
0.095031
0.089493
0.099061
0.166382
0.198933
0.193202
0.189950
0.225047
0.263192
0.199808
0.179480
0.145209
0.168112
0.198753
0.224545
0.263822
0.252244
0.261038
0.232798
0.247667
0.227007
0.199323
0.185411
0.154826
0.073329
0.113924
0.099277
0.092299
0.081759
0.064801
-0.020881
-0.133019
-0.139385
0.084182
0.164122
0.119582
0.112501
0.089272
0.099111
0.191312
0.161173
0.091202
0.123384
0.006238
0.092943
0.138191
0.199109
0.212680
0.144631
0.096285
-0.057822
-0.084190
-0.097959
-0.065649
0.053575
0.037609
0.119247
0.187718
0.253492
0.302741
0.297253
0.302456
0.287579
0.237104
0.226129
0.226298
0.186003
0.148088
0.142762
0.250714
0.219679
0.154886
0.175142
0.226338
0.236916
0.249671
0.309735
0.322743
0.324111
0.211325
0.254553
0.311367
0.296641
0.241881
0.251287
0.241470
0.212352
0.241677
0.260851
0.267818
0.264070
0.266933
0.259648
0.243502
0.227405
0.215735
0.232035
0.172050
0.180446
0.194687
0.215705
0.249854
0.253810
0.286224
0.297803
0.299175
0.311874
0.323726
0.325726
0.332502
0.330294
0.328915
0.335319
0.322876
0.193730
0.182605
0.222259
0.160136
0.153696
0.153144
0.147840
0.172417
0.252457
0.314083
0.317688
0.304876
0.288051
0.291501
0.276854
0.275874
0.254050
0.228929
0.187209
0.226014
0.241800
0.201105
0.202451
0.189902
0.198321
0.153118
0.156160
0.157535
0.159659
0.043815
0.083265
0.042260
0.054000
0.100720
-0.068115
-0.059123
-0.068043
0.126883
0.173305
0.210053
0.208543
0.181086
0.187211
0.193426
0.267757
0.250665
0.247359
0.232896
0.189201
0.134474
0.033315
0.058408
0.126206
0.162427
0.164797
0.169736
0.181868
0.172768
0.120711
0.103624
0.074424
0.087627
-0.001430
-0.072773
-0.044077
-0.033104
0.002007
0.022590
0.036354
0.075988
0.127418
0.142700
0.143589
0.315033
0.315217
0.306427
0.273826
0.255476
0.269030
0.240361
0.232926
0.231571
0.213660
0.177321
0.150359
0.129773
0.161590
0.170304
0.178819
0.147527
0.069661
0.043457
0.106488
0.070605
0.135101
0.175740
0.217064
0.227970
0.185771
0.112091
0.067416
0.028584
-0.007463
-0.077065
0.062970
0.247195
0.145314
0.294238
0.288990
0.298699
0.293874
0.291421
0.289253
0.287826
0.280574
0.256600
0.263915
0.220032
0.200060
0.214210
0.209865
0.186609
0.175460
0.176844
0.186511
0.172677
0.206002
0.079283
-0.001523
0.024242
0.011132
0.052506
0.074591
-0.027000
0.006162
-0.014704
0.081734
0.153892
0.204402
0.231748
0.239089
0.184332
0.160589
0.120205
0.125406
0.161271
0.199708
0.200839
0.156786
0.010698
-0.035258
0.017511
0.006614
0.021735
0.032351
0.102109
0.083891
0.203008
0.221206
0.236404
0.308120
0.224605
0.313670
0.283387
0.218213
0.271724
0.273690
0.276241
0.247513
0.247665
0.261928
0.270740
0.251442
0.250163
0.242472
0.236530
0.233221
0.227525
0.192772
0.160171
0.179530
0.233359
0.233595
0.271612
0.267737
0.293933
0.294321
0.308172
0.306690
0.321825
0.320350
0.330528
0.328921
0.320301
0.314612
-0.033085
0.041032
0.033808
0.079495
0.074090
0.114200
0.137370
0.209250
0.209501
0.217558
0.267862
0.280278
0.283817
0.300507
0.278014
0.258289
0.260132
0.248339
0.218212
0.296983
0.292353
0.282786
0.254595
0.265772
0.252909
0.234492
0.238990
0.227092
0.203447
0.230570
0.204765
0.199190
0.175379
0.187870
0.170686
0.177238
0.151616
0.155374
0.141226
0.081879
0.023460
0.038349
0.074121
0.135546
0.197844
0.244156
0.093768
0.051889
0.013750
-0.044607
-0.092073
-0.053646
0.190441
0.238148
0.329503
0.338193
0.315306
0.304578
0.305973
0.301221
0.295878
0.296586
0.270915
0.267441
0.260111
0.237232
0.223044
-0.027896
0.054240
0.083157
0.129051
0.090667
0.117498
0.084319
0.111631
0.150020
0.247042
0.265602
0.270870
0.274702
0.297523
0.291252
0.238387
0.228236
0.215839
0.226784
0.188600
0.147445
0.204353
0.239437
0.084432
0.101812
0.173703
0.204797
0.206142
0.190620
0.163180
0.156307
0.142908
0.154699
0.137492
0.112642
0.083635
0.048462
-0.064277
-0.092412
-0.042038
-0.046054
-0.012884
-0.003405
0.029902
0.076331
-0.096312
0.216965
0.189514
0.097478
0.097568
0.124825
0.058411
0.042874
0.033321
-0.024213
0.047165
-0.003867
0.006603
0.262100
0.261617
0.244157
0.230540
0.222467
0.240921
0.242030
0.202656
0.164070
0.192742
0.199884
0.223572
0.250937
0.259940
0.287918
0.302361
0.294502
0.308802
0.293670
0.301569
0.302600
0.320831
0.318067
0.317434
0.308025
0.305979
0.293052
0.288968
0.271989
0.273049
0.264594
0.250991
0.228433
0.246978
0.223044
0.219520
0.181395
0.172631
0.178221
0.225056
0.281714
0.264042
0.209970
0.169520
0.244972
0.198793
0.189614
0.141734
0.153516
0.185349
0.243095
0.220050
0.189571
0.216632
0.197542
0.210938
0.185073
0.177760
0.165956
0.164328
0.157916
0.126327
0.087530
0.024361
0.029197
0.084766
0.063276
0.200057
-0.015631
0.134139
0.177452
0.205524
0.229770
0.243877
0.249845
0.200056
0.159171
0.147600
0.159934
0.183285
0.214512
0.181112
0.105312
0.233115
0.281656
0.278241
0.269626
0.186017
0.201603
0.198653
-0.079313
-0.067541
-0.044524
-0.032056
-0.018521
0.034730
0.179611
0.218439
0.287905
0.266837
-0.002137
-0.046712
-0.063868
-0.057735
0.094369
0.190875
0.292562
0.337723
0.336184
0.319825
0.312668
0.313893
0.308806
0.299994
0.298395
0.286468
0.275688
0.260802
0.229120
0.220355
0.256669
0.244511
0.241357
0.208660
0.201624
0.202026
0.177399
0.196697
0.162002
0.146027
0.116794
0.128554
0.139053
0.202108
0.173963
0.180626
0.178288
0.172814
0.171933
0.152701
0.121126
0.119659
0.316234
0.304746
0.298464
0.291738
0.288608
0.308042
0.310170
0.310703
0.322718
0.319624
0.316046
0.299448
0.281206
0.257299
0.278252
0.266379
0.246349
0.226514
0.221717
0.212491
0.298590
0.278987
0.284265
0.285430
0.290488
0.287167
0.282109
0.291815
0.305417
0.302226
0.313783
0.324533
0.301093
0.315045
0.303756
0.267137
0.257893
0.275282
0.243150
0.241450
0.237732
0.226452
0.219013
0.233886
0.220993
0.198721
0.172362
0.196295
0.164878
0.155620
0.154414
0.125169
0.078761
0.088001
-0.012661
-0.003925
0.090712
0.165469
0.145913
0.116747
0.164767
0.190883
0.217639
0.220106
0.205890
0.178318
0.177616
0.191396
0.173511
0.136944
0.198908
0.153325
0.150952
0.142939
0.176550
0.196384
0.229286
0.232397
0.239171
0.235379
0.202551
0.198181
0.182758
0.158950
0.142415
0.110005
0.046159
0.004670
-0.041602
0.104469
0.093224
0.145254
0.195144
0.226280
0.236743
0.244080
0.244844
-0.040683
-0.040131
-0.045959
-0.008865
0.091392
0.149995
0.259503
0.284901
0.328486
0.336718
0.330594
0.320906
0.316290
0.312979
0.310194
0.299028
0.287715
0.281144
0.260013
0.248380
0.239361
0.202178
0.294422
0.196301
0.169985
0.176246
0.225885
0.193128
0.130396
0.092717
0.100858
0.108630
-0.052879
-0.052612
-0.055180
0.019675
-0.031966
0.043827
0.018828
0.329356
0.282817
0.286806
0.256328
0.263933
0.229045
0.252646
0.232565
0.224483
0.229277
0.213222
0.237396
0.210065
0.220376
-0.044369
-0.047418
-0.019642
0.026548
0.020615
0.106673
-0.047564
0.085057
0.141033
0.167394
0.196795
0.224622
0.240013
0.239652
0.233648
0.237853
0.246366
0.246748
0.225403
0.217878
0.200916
0.172476
-0.048147
-0.010963
0.021321
0.107673
0.174871
0.248884
0.271661
0.302498
0.328217
0.324006
0.326017
0.326529
0.320233
0.312964
0.303149
0.310648
0.287784
0.284867
0.258698
0.246894
0.233810
0.215943
0.202341
0.230319
0.250081
0.268401
0.284362
0.177788
0.194832
0.174299
0.160972
0.118921
0.143317
0.043605
-0.050325
0.054830
0.005773
0.204145
0.205212
0.226244
0.229805
0.219306
0.192440
0.160274
0.156013
0.166783
0.133045
-0.021420
0.157919
0.143661
0.027919
0.091804
0.094226
0.058922
-0.048056
0.085124
0.043250
0.157817
0.147286
0.190028
0.216414
0.220212
0.217446
0.211347
0.240380
0.242974
0.225248
0.224218
0.232036
0.286759
0.249959
0.271610
0.266721
0.275623
0.280718
0.279205
0.273303
0.270903
0.285977
0.302586
0.297232
0.302724
0.316013
0.309073
0.231517
0.209962
0.232663
0.231310
0.235229
0.173664
0.196843
0.171528
0.131783
0.153473
0.016409
0.072671
0.129838
0.185056
0.235089
0.274116
0.314027
0.327238
0.326338
0.321823
0.325451
0.311307
0.310188
0.305031
0.303157
0.274645
0.263062
0.235760
0.213736
0.236944
0.227090
0.225745
0.204554
0.197409
0.175385
0.233097
0.231870
0.219788
0.222492
0.219608
0.223670
0.206663
0.060048
0.106281
0.135844
0.109381
0.111510
0.053224
0.127259
0.215162
0.207691
0.195679
0.245219
0.228480
0.233247
0.242068
0.258593
0.276078
0.242199
0.259930
0.271670
0.271724
0.287990
0.271888
0.285254
0.292226
0.294539
0.305000
0.305808
0.299856
0.286360
0.283243
0.262772
0.257088
0.231220
0.236980
0.242132
0.225895
0.230467
0.246655
0.238639
0.230584
0.235484
0.231864
0.218422
0.218494
0.114187
0.166151
0.168195
0.210567
0.229779
0.244506
0.259852
0.241680
0.240722
0.227312
0.216002
0.192351
0.171051
0.098964
0.142919
0.191504
0.281966
0.305451
0.315137
0.316205
0.309841
0.233926
0.217761
0.259267
0.238603
0.262898
0.218516
0.208403
0.192802
0.191175
0.217002
0.250992
0.230179
0.245753
0.263275
0.272233
0.275583
0.272262
0.249862
0.227949
0.206734
0.180649
0.141673
0.233379
0.238069
0.221052
0.219382
0.217038
0.222821
0.234661
0.257380
0.246928
0.255238
0.289328
0.285859
0.290853
0.285672
0.279308
0.256849
0.225262
0.186256
0.271392
0.286081
0.295372
0.156678
0.300297
0.291588
0.284729
0.315710
0.312177
0.283556
0.304831
0.272372
0.258060
0.252809
0.231479
0.266733
0.252202
0.251032
0.281328
0.237022
0.272578
0.304757
0.297339
0.303163
0.303436
0.310167
0.282683
0.289842
0.263518
0.257409
0.234400
0.253351
0.234082
0.241895
0.229537
0.235891
0.241508
0.250112
0.223433
0.260848
0.258942
0.276630
0.305976
0.278062
0.302808
0.309865
0.296806
0.285467
0.285772
0.291148
0.260651
0.231144
0.235087
0.215621
0.277976
0.264912
0.096446
0.127065
0.096873
0.107811
0.117180
0.146458
-0.020134
-0.016718
0.060304
-0.019050
0.225847
0.289980
0.228105
0.221838
0.242256
0.118110
0.199656
0.088361
0.129547
0.066249
0.231122
0.264807
0.240402
0.276629
0.291385
0.282235
0.119856
0.085405
0.110592
0.142399
0.243619
0.208474
0.247033
0.188330
0.206607
0.166631
0.194475
0.213880
0.215903
0.226226
0.221057
0.211190
0.204332
0.160566
0.157581
0.191824
0.161431
0.152377
0.229688
0.248944
0.265961
0.257521
0.223812
0.211751
0.200783
0.071117
0.237669
0.292334
0.188375
0.144784
0.232169
0.255543
0.292550
0.248133
0.281030
0.236121
0.259544
0.019650
0.172839
0.152738
0.019301
0.053730
0.055765
0.044172
-0.015742
0.234557
0.214124
0.198371
0.167189
0.202574
0.044859
0.045607
0.271500
0.307692
0.258537
0.081863
-0.080985
0.051463
0.125612
-0.095960
0.017541
0.202163
0.229097
0.278930
0.298025
0.325980
0.337991
0.340284
0.348699
0.334421
0.344806
0.302788
0.312223
0.320202
0.303845
0.285663
0.280255
0.271202
0.231178
0.284675
0.250034
0.181505
-0.018242
-0.132353
-0.203484
0.034561
0.189839
0.246959
0.195758
0.091137
0.196236
-0.024881
0.117879
0.132141
0.264882
0.163983
0.248658
0.125451
0.034156
0.172653
0.085608
0.016602
0.030032
0.116637
-0.072625
0.103751
0.039080
0.148344
-0.104738
0.007727
0.032054
0.231089
0.258912
0.300294
0.208322
0.178345
0.057404
0.124201
0.067497
0.072845
0.136238
0.078380
0.108567
0.197045
0.222920
0.273889
0.229502
0.244865
0.167370
0.128060
0.034227
-0.032065
-0.031515
0.302831
0.299794
0.292681
0.272730
0.282803
0.272157
0.251265
0.264603
0.263665
0.270073
0.251031
0.308941
0.251573
0.256413
0.295498
0.252787
0.256998
0.282857
0.248710
0.251887
0.251172
0.275408
0.283033
0.284399
0.289080
0.299722
0.296898
0.305339
0.294513
0.276827
0.289764
0.240773
0.245542
0.296402
0.267759
0.257018
0.299999
0.214595
0.278280
0.302704
0.266816
0.294006
0.289939
0.294614
0.280210
0.310535
0.279669
-0.113712
-0.095925
-0.082687
-0.030213
0.053874
0.122452
0.084379
0.152643
0.247742
0.264705
0.304782
0.321233
0.327089
0.344187
-0.025414
0.054973
0.114657
0.218792
0.240789
0.284223
0.280472
0.249796
0.090044
0.163120
0.213569
0.108070
0.158069
0.245146
0.185664
0.219801
0.228443
0.266575
0.103506
0.167927
-0.061802
0.221899
0.279279
0.278951
0.202058
0.030704
0.194130
0.237223
0.205723
0.027372
0.088104
-0.000134
0.170138
0.302825
0.248472
0.152322
0.001782
0.089794
0.191979
0.195131
0.162371
0.302605
0.211955
0.155931
0.248446
0.236569
0.106696
0.179522
0.087641
0.111139
-0.066228
0.170904
0.120717
0.112736
0.120298
0.192791
0.210613
0.264312
0.292829
0.274087
0.153062
0.136477
0.068968
0.043159
0.145150
0.024046
0.096040
0.207201
0.212511
0.268054
0.233050
0.279533
0.248964
0.170150
0.032588
-0.018687
0.215094
0.260109
0.032204
-0.057481
-0.225522
0.119731
0.335702
0.327078
0.294179
0.288425
0.274866
0.271619
0.275320
0.280305
0.279185
0.305828
0.294295
0.278420
0.287637
0.285168
0.253179
0.264504
0.262343
0.274710
0.243400
0.256993
0.269881
0.290558
0.302729
0.308591
0.324433
0.327802
0.325187
0.318251
0.294174
0.296679
0.274104
0.235740
0.296762
0.268416
0.272257
0.302049
0.254968
0.301533
0.294942
0.279953
0.275942
0.265616
0.231753
0.289113
0.281670
0.289095
0.329952
0.325688
0.338457
0.350727
0.342286
0.352354
0.343372
0.334528
0.325022
0.321288
0.308370
0.285832
0.289214
0.282926
0.269656
0.281316
0.243969
0.266324
-0.039129
0.103202
0.062862
0.149986
0.176601
0.203079
0.220552
0.271560
0.304301
0.317601
0.334447
0.342235
0.172635
0.189865
0.270256
0.191090
0.180943
0.254674
0.287723
0.267512
0.107557
0.115538
0.044064
-0.002566
0.065325
0.197006
0.332303
0.304050
0.225908
0.159119
0.170845
0.184574
0.023272
-0.115351
0.017703
0.209439
0.280839
0.296380
0.312384
0.228118
0.280845
0.225727
0.059111
-0.037938
0.138690
0.109364
0.235948
0.321959
0.249776
0.215749
0.243596
0.096413
0.129608
0.068266
0.005748
0.112571
0.087158
0.168529
0.258771
0.255839
0.214710
0.182279
0.148927
0.142157
0.174464
0.076153
0.070806
0.170735
0.212669
0.295998
0.264906
0.311384
0.287629
0.250071
0.202440
0.102337
0.127078
0.145039
0.141505
0.177791
0.200194
0.207759
0.236338
0.279984
0.294806
0.314786
0.324184
0.012694
0.119232
0.132921
0.183480
0.290662
0.267749
0.260145
0.208587
0.050103
0.150677
0.172186
0.198073
0.169187
0.302572
0.327538
0.331623
0.326770
0.338515
0.328991
0.339055
0.317154
0.303711
0.298810
0.285710
0.288441
0.247338
0.241753
0.310223
0.254326
0.247316
0.204820
0.296287
0.275039
0.273100
0.266058
0.266356
0.271643
0.271855
0.286997
0.277042
0.289352
0.277828
0.294387
0.263162
0.271764
0.275665
0.279205
0.245494
0.264764
0.263692
0.292255
0.308488
0.321456
0.338403
0.343654
0.341083
0.323703
0.302846
0.297253
0.280120
0.281827
0.281429
0.268007
0.265097
0.276401
0.269069
0.291449
0.289414
0.257201
0.293186
0.298035
0.288632
0.309192
0.202333
0.178713
0.183295
0.279181
0.275702
0.235497
0.171009
0.125627
0.142859
0.127703
0.100858
0.143162
0.217628
0.306566
0.338602
0.309458
0.144702
0.165212
0.197738
0.120187
0.129458
-0.052183
0.078033
0.176702
0.268113
0.295606
0.306273
0.292551
0.227764
0.153284
0.175137
0.110333
0.002962
0.131795
0.060792
0.117719
0.101240
0.186076
0.133714
0.171413
0.188834
0.224229
0.095320
0.155229
0.067229
0.015820
0.064752
0.101827
0.216173
0.224688
0.232006
0.238809
0.196438
0.211906
0.198356
0.151459
0.112698
0.146008
0.200021
0.280336
0.315378
0.312353
0.293084
0.268000
0.219056
0.166798
0.206011
0.187505
0.208555
0.226405
0.247161
0.254461
0.265727
0.282724
0.300882
0.316443
0.311106
0.311399
0.324704
0.323116
0.319865
0.311238
0.304631
0.303642
0.270052
0.304973
0.275466
0.288223
0.290642
0.282421
0.287457
0.286733
0.197628
0.208509
0.156342
0.164296
0.255145
0.243174
0.218784
0.170382
0.097644
0.121678
0.152573
0.222224
0.211750
0.282454
0.277908
0.267213
0.281647
0.287317
0.289240
0.280418
0.300298
0.305308
0.299360
0.282808
0.287475
0.272016
0.278467
0.276514
0.259730
0.255098
0.260573
0.283592
0.309837
0.326771
0.344287
0.352664
0.342130
0.326610
0.316445
0.297138
0.285265
0.277850
0.269644
0.303157
0.264895
0.279025
0.278843
0.306444
0.288551
0.286838
0.296476
0.311825
0.309648
0.154415
0.142498
0.260099
0.219144
0.193180
0.186660
0.173072
0.154937
0.179439
0.152486
0.171476
0.221196
0.272410
0.315618
0.302050
0.307209
0.262869
0.182166
0.121857
0.124758
0.028165
0.001610
0.006956
0.087130
0.237977
0.270119
0.296070
0.205023
0.263617
0.291293
0.220496
0.160333
0.137640
0.155610
0.271794
0.198178
-0.027436
0.047582
-0.059692
0.126267
0.218959
0.288156
0.306385
0.275172
0.236552
0.152745
0.135332
0.061102
-0.052929
-0.080195
-0.017249
0.015210
0.006401
0.054095
0.120255
0.115522
0.173353
0.191470
0.154741
0.157424
0.095121
0.009594
0.059302
0.100420
0.194917
0.218010
0.221597
0.259530
0.212541
0.203180
0.236482
0.217335
0.156097
0.142232
0.166565
0.175223
0.243472
0.277180
0.314784
0.318610
0.322102
0.319412
0.305071
0.286640
0.235978
0.236615
0.217311
0.223170
0.230445
0.260566
0.266350
0.275595
0.282784
0.285613
0.307117
0.323214
0.323012
0.316033
0.304931
0.312731
0.305699
0.277914
0.305630
0.290833
0.310104
0.286453
0.282197
0.258075
0.247568
0.220215
0.193433
0.192066
0.214005
0.229132
0.221684
0.229989
0.231834
0.219820
0.153393
0.120636
0.129142
0.247915
0.267960
0.264827
0.277073
0.280499
0.294497
0.284217
0.298686
0.326021
0.297569
0.300052
0.276606
0.293730
0.277857
0.273205
0.266295
0.254903
0.238795
0.272992
0.303993
0.334472
0.342720
0.350093
0.345046
0.306150
0.299529
0.303514
0.301685
0.285341
0.289323
0.268496
0.273078
0.281192
0.296368
0.294950
0.272383
0.292742
0.288970
0.313132
0.146857
0.167974
0.234619
0.253916
0.184965
0.098394
0.108815
0.101855
0.110576
0.165422
0.204077
0.228584
0.239121
0.236709
0.247905
0.272282
0.250755
0.185581
0.162636
0.153013
0.179257
0.211326
0.245806
0.263784
0.285495
0.314165
0.325383
0.329246
0.316091
0.307041
0.276535
0.172354
0.237843
0.282318
0.253313
0.170109
0.115185
0.125464
0.181946
0.211350
0.181707
0.110960
0.084746
0.108720
0.211160
0.289326
0.285320
0.261249
0.271826
0.225851
0.204170
0.164732
0.214913
0.185864
0.069694
-0.015126
-0.039995
0.328269
0.291792
0.274529
0.270194
0.257286
0.248608
0.267256
0.258544
0.267199
0.257272
0.314186
0.311298
0.306831
0.295041
0.295035
0.298412
0.294117
0.283053
0.283634
0.280613
0.266880
0.275047
0.260594
0.246462
0.230987
0.227688
0.222281
0.217176
0.213632
0.214133
-0.044459
0.024798
0.072751
0.078093
0.119456
0.272927
0.282041
0.288221
0.297949
0.305729
0.292899
0.318042
0.300375
0.286978
0.285480
0.287852
0.277597
0.284491
0.264344
0.239484
0.230576
0.258753
0.327718
0.305725
0.305128
0.328334
0.336906
0.290581
0.289579
0.294335
0.309110
0.283009
0.293297
0.292581
0.270219
0.270395
0.314584
0.301631
0.274056
0.292866
0.310126
0.201003
0.186003
0.190484
0.223740
0.297574
0.290570
0.311124
0.300876
0.304823
0.288859
0.301643
0.299603
0.290317
0.286067
0.277481
0.274802
0.264102
0.258844
0.236551
0.241274
0.229058
0.114742
0.077890
0.065664
0.236581
0.247059
0.257625
0.257267
0.246102
0.211026
0.204531
0.204745
0.215503
0.240345
0.263143
0.278161
0.284640
0.294058
0.311373
0.327400
0.324018
0.316531
0.312804
0.205622
0.223807
0.234756
0.234957
0.229026
-0.007333
0.033039
0.041943
0.274403
0.288608
0.322178
0.316829
0.308144
0.336641
0.297803
0.243365
0.210057
0.099079
0.199765
0.297474
0.122241
0.190257
0.205926
0.142989
0.176809
0.235259
0.259829
0.274352
0.248254
0.259918
0.247809
0.228699
0.227421
0.212851
0.210076
0.190547
0.102578
0.080551
0.169266
0.275212
0.270392
0.291176
0.301196
0.304268
0.303924
0.315857
0.307316
0.308549
0.281929
0.293398
0.281987
0.290385
0.255218
0.250593
0.201371
0.265525
0.312101
0.292375
0.280168
0.301095
0.324801
0.282497
0.271343
0.283542
0.303817
0.292833
0.283529
0.301743
0.279062
0.276144
0.307748
0.300838
0.282759
0.290490
0.311798
0.296065
0.293322
0.291403
0.268318
0.240590
0.217650
0.181283
0.230210
0.251987
0.256380
0.256445
0.236843
0.225168
0.224504
0.236738
0.255696
0.273692
0.286518
0.287581
0.289629
0.298018
0.305653
0.317137
0.324665
0.331392
0.323527
0.325742
0.312938
0.306422
0.298350
0.297405
0.258815
0.249931
0.295211
0.312842
0.328090
0.305274
0.322950
0.334604
0.282044
0.239173
0.053396
0.133313
0.131739
0.326885
0.257344
0.126657
0.176081
0.168449
0.118860
0.168535
0.225951
0.143016
0.185230
0.164172
0.175396
0.251270
0.275422
0.267299
0.293764
0.295566
0.257879
0.234531
0.305098
0.307210
0.292538
0.291033
0.310475
0.304474
0.291300
0.265350
0.299073
0.288400
0.290148
0.241823
0.253598
0.221400
0.241354
0.307166
0.303989
0.278324
0.280723
0.288163
0.290710
0.257722
0.298766
0.295632
0.308272
0.285373
0.300325
0.268855
0.289692
0.298751
0.306724
0.288321
0.304004
0.295250
0.293836
0.288215
0.278659
0.268417
0.259814
0.267805
0.280394
0.287736
0.280733
0.269101
0.259311
0.270091
0.250945
0.238188
0.221787
0.221027
0.230978
0.248356
0.232764
0.240774
0.249020
0.262076
0.273418
0.284316
0.291795
0.296366
0.307558
0.293052
0.298637
0.301197
0.310281
0.316695
0.327224
0.325010
0.323237
0.313258
0.304338
0.310214
0.311716
0.223656
0.217975
0.306424
0.305281
0.306919
0.309979
0.298825
0.283112
0.261763
0.293392
0.286539
0.285453
0.236073
0.236805
0.233827
0.267657
0.244085
0.274290
0.284949
0.249348
0.299313
0.304219
0.274212
0.277084
0.296923
0.311386
0.302709
0.303715
0.285923
0.279606
0.288830
0.302289
0.298418
0.289806
0.297759
0.309349
0.298535
0.306244
0.309736
0.310644
0.292744
0.287297
0.265202
0.267499
0.277085
0.280353
0.280647
0.302858
0.290458
0.278575
0.290138
0.309895
0.300770
0.295842
0.311270
0.313550
0.327805
0.323253
0.325551
0.326079
0.322332
0.301836
0.296869
0.294698
0.290804
0.302000
0.311554
0.299763
0.292584
0.285570
0.300628
0.308946
0.322680
0.327265
0.312306
0.302209
0.298634
0.187125
0.161215
0.128843
0.119308
0.159278
0.125591
0.252180
0.183633
0.122743
0.233577
0.206347
0.228137
0.254113
0.277973
0.272511
0.259319
0.281862
0.288394
0.285694
0.325070
0.306035
0.311220
0.304355
0.292771
0.275380
0.298454
0.295889
0.271408
0.243379
0.247758
0.204797
0.255092
0.281767
0.256005
0.263671
0.320002
0.314769
0.288860
0.309213
0.294652
0.283703
0.313213
0.311820
0.298211
0.305679
0.290506
0.303676
0.285162
0.283494
0.269814
0.284703
0.323964
0.307844
0.306096
0.298373
0.299318
0.288001
0.305520
0.296575
0.267990
0.251431
0.234920
0.205099
0.197111
0.293544
0.228763
0.248260
0.270049
0.317018
0.214431
0.248198
0.345513
0.294478
0.321734
0.323497
0.297802
0.306058
0.289363
0.298453
0.306904
0.309356
0.287753
0.305150
0.310210
0.307114
0.286528
0.274165
0.309987
0.319956
0.317832
0.315056
0.304715
0.277277
0.176241
0.070608
0.217268
0.146636
0.269547
0.288960
0.299392
0.304827
0.306182
0.290632
0.304876
0.301680
0.317086
0.312294
0.325844
0.150891
0.202356
0.234054
0.218339
0.256453
0.275120
0.300485
0.294187
0.323514
0.320731
0.304474
0.308624
0.297004
0.235537
0.298062
0.309320
0.332455
0.323718
0.144282
0.122747
0.192433
0.234550
0.251548
0.258068
0.282566
0.289288
0.288849
0.288933
0.193407
0.220348
0.232491
0.248497
0.272017
0.280928
0.276790
0.248383
0.258697
0.278063
0.275444
0.295533
0.288358
0.290939
0.262846
0.265481
0.309638
0.320140
0.295946
0.296049
0.302161
0.311427
0.290875
0.314752
0.316550
0.291931
0.308870
0.306089
0.321750
0.065526
0.187424
0.243810
0.247302
0.282416
0.315663
0.298141
0.284052
0.331054
0.337148
0.213808
0.225151
0.130691
0.117199
0.291214
0.279518
0.208306
0.256624
0.151781
0.206266
0.296066
0.305210
0.280962
0.290722
0.295819
0.074292
0.169259
0.196477
0.219234
SCALARS V11_SP1(MPa) float 1
LOOKUP_TABLE default
1.442574
1.299027
1.291147
1.198936
1.523757
1.261553
1.205693
0.957337
0.718473
0.736220
0.746588
0.870888
0.962822
1.199527
1.236787
1.164441
1.152452
1.146747
1.118642
1.069778
0.798522
0.907759
1.112090
0.908347
0.935645
1.074955
1.065222
1.033188
0.715133
0.687263
1.001513
0.860136
0.904129
1.085590
1.395884
1.257338
1.099926
0.766063
1.026707
0.953334
1.249773
1.076163
0.990992
1.079820
1.221425
1.190887
0.947045
1.252425
1.282862
1.338470
1.513981
1.405162
1.010055
1.320643
1.367050
1.446046
1.473929
1.452728
1.327903
1.548202
0.945321
1.357081
1.348647
1.367854
1.538881
1.096546
1.408034
1.379284
1.488730
1.342067
1.285745
1.137653
1.228286
1.236789
1.217034
0.837574
1.055369
0.945608
0.955373
0.978241
1.327844
1.427885
1.392742
0.870616
1.379356
1.108103
1.218343
1.078609
1.094258
0.862463
0.959711
1.031034
1.262524
1.234935
1.275016
1.492986
1.105111
0.867249
1.034942
1.327352
1.377786
1.374292
1.041514
1.493470
1.517844
1.507054
1.496289
1.418873
1.479254
1.516472
1.539442
1.533866
1.560584
1.468508
1.471487
1.509621
1.545451
1.571916
1.593643
1.135684
1.049281
0.882658
0.963413
0.847494
0.845134
0.970498
0.938897
0.920648
1.006351
1.028583
1.123094
1.369428
1.170438
1.351352
1.361754
0.983236
1.005194
0.838916
0.876008
0.773066
0.910648
1.065444
1.168461
0.882832
1.170854
1.124781
1.034114
1.102198
1.025008
0.932774
0.918548
0.921891
0.873162
0.743725
0.649148
1.340942
1.288569
1.392703
1.242105
1.260846
1.477107
1.180332
0.767446
0.744473
0.720375
0.761526
0.747904
0.823378
1.022596
1.088565
1.165702
1.303932
1.144120
0.999453
0.816220
0.815984
0.674096
0.682000
0.781912
0.843920
0.823080
0.806594
0.781447
0.824361
0.933436
0.760633
0.716271
0.942499
1.047780
1.413820
1.343545
1.051913
0.860265
1.124459
1.132789
1.319046
1.285195
1.095894
0.973495
1.013383
0.929654
1.499304
1.183790
1.268464
1.418554
1.369154
1.259892
1.325785
1.548609
1.581685
1.503436
1.463320
1.301481
1.243904
1.255842
1.441229
1.525397
0.934609
1.396935
1.312184
1.487078
1.390327
1.375008
1.440930
1.313959
1.375294
1.396221
1.053506
0.899094
1.332438
1.030386
0.863138
0.825990
1.177213
1.328870
1.109665
0.746153
0.989764
1.248147
1.373794
1.161855
0.921964
0.847400
0.810487
0.923178
0.963559
0.990442
1.052653
1.201989
1.502563
1.457889
1.071465
1.015460
1.318115
0.996992
1.041086
0.996172
1.474336
1.499445
1.494769
1.562636
1.536165
1.527671
1.584109
1.583583
1.555598
1.575112
1.564799
1.541927
1.556774
1.585421
1.620698
1.403109
1.239468
1.129029
0.984264
0.754968
0.688461
0.720102
0.729736
0.729075
0.765434
0.975295
1.255575
1.431323
1.469187
1.602833
1.574577
1.249989
1.394902
1.044133
0.965952
0.951943
1.067352
1.321455
1.216491
1.031440
1.068467
1.066858
1.016920
1.052853
1.170231
0.963931
1.032196
1.099957
0.936651
0.817315
0.710604
1.196620
1.091333
1.334323
1.042537
1.356179
1.290900
1.026839
0.817296
0.740645
0.743328
0.775674
0.784015
1.175798
1.228014
1.241441
1.327468
1.217287
1.046130
0.934123
0.858662
0.811394
0.768870
0.926217
0.828761
0.687997
0.689478
0.642365
0.686992
0.664102
0.935014
0.677723
0.906697
0.878091
1.315155
1.457249
1.251270
1.076924
1.074409
1.063841
1.334365
1.124819
1.035828
1.149056
1.030726
1.553773
1.571475
1.424929
1.414543
1.219921
1.265751
1.333962
1.468279
1.412969
1.357986
1.022894
1.315894
1.345904
1.001805
1.016412
1.118641
1.110312
1.459521
1.488269
1.566794
1.573503
1.480414
1.508387
1.513570
1.476162
1.133106
1.265322
0.902471
0.905006
1.201982
1.244687
0.985676
0.815679
1.147249
1.200809
1.188374
0.889757
0.863825
0.995701
1.183311
1.512431
1.264479
1.153177
1.328950
1.302277
1.228999
0.874402
0.722549
1.099138
0.954050
1.362615
1.436711
1.493462
1.518573
1.547140
1.579186
1.578185
1.558536
1.566441
1.547652
1.551873
1.556277
1.576826
1.591864
1.548966
1.633138
1.449780
1.367801
0.885642
0.906474
0.715262
0.680434
0.722699
0.717758
0.793723
1.003904
1.168706
1.368179
1.542259
1.591868
1.657545
1.540930
1.528880
1.161629
1.033388
1.010156
1.036150
1.296565
1.390045
1.131897
1.164276
1.157422
1.208732
1.331539
1.538881
1.589256
1.523122
1.512458
1.198686
0.967628
0.660560
0.748463
0.702059
1.098472
1.184067
0.976410
1.138758
1.092789
1.028841
0.948874
1.204258
1.255039
1.277744
1.155639
1.148192
1.112879
1.099024
1.005077
0.986021
0.940396
0.899520
0.927810
0.934244
1.332319
1.209229
1.242519
1.264223
1.088189
1.320206
1.433018
0.975447
1.041417
0.891926
0.925277
1.042694
1.116282
1.000384
0.996036
0.993291
1.043409
1.053301
1.041476
1.058850
1.072148
1.092564
1.110143
1.135742
1.145030
1.172413
1.208582
1.177650
1.060433
1.045309
1.081631
1.059412
0.970632
0.989338
0.990302
1.002791
0.975691
0.961575
0.968307
0.895682
0.925269
0.950114
0.883122
0.954734
1.011268
0.915188
1.002556
1.042990
1.016603
1.135658
0.997066
1.153858
1.132679
1.088819
1.266519
1.167684
1.214120
1.172115
1.209110
1.234233
1.184903
1.160517
1.259783
1.182679
1.084535
1.121617
1.112737
1.011555
1.100104
1.098752
1.173853
1.133390
1.200741
1.201081
1.188976
1.118784
1.141119
1.146461
1.155477
1.117947
1.167311
1.161840
1.182872
1.211762
1.179482
1.129141
1.156036
1.109051
1.127638
1.116716
1.137104
1.120317
1.017980
1.048695
1.103233
1.005210
1.127632
1.151851
1.163493
1.074093
1.044632
1.089296
1.022758
1.009479
1.070430
1.006459
1.014638
1.027665
1.022443
0.911469
0.963681
0.959928
0.910900
0.967725
0.967551
0.895799
0.962149
0.967083
0.937538
0.980097
1.022193
0.962418
1.035572
1.068716
1.060284
1.026103
1.089709
1.021656
1.089612
1.070053
1.084748
1.055779
1.044599
1.117423
1.106890
1.100899
1.055322
1.163867
1.059574
1.113280
1.117726
1.118920
1.267830
1.205980
1.003256
1.068454
1.151224
1.235205
1.328437
1.262012
1.252637
1.157215
1.157285
1.159843
1.128237
0.989751
1.049079
0.968344
1.103572
0.877264
0.801484
0.720468
0.647905
0.682450
0.707592
0.781948
0.846763
0.942808
0.925347
1.116009
1.218041
0.881555
0.902435
1.055560
1.242801
1.196533
1.129099
1.149120
1.306168
1.256084
1.260069
1.106997
1.055410
1.119256
1.047203
1.082057
1.140493
1.046036
0.975118
0.950855
0.951354
0.948816
0.943749
0.949282
0.957729
0.979508
1.007712
1.034457
1.065095
1.078597
1.114221
1.111597
1.094497
0.982099
0.919093
0.861661
0.858484
0.969613
1.264902
1.480670
1.260105
1.296500
1.118535
1.215807
0.880571
0.832444
0.870029
0.734472
1.014416
1.372893
0.999727
1.111847
1.080761
1.058289
1.023834
1.012716
1.024556
1.003787
0.968421
0.953626
0.904790
0.887424
0.887198
0.880378
0.865332
0.954160
0.934140
0.957585
1.044327
1.029499
1.028117
1.098649
1.086951
1.145531
1.191025
1.108194
1.255483
1.272250
1.222355
1.223145
1.269950
1.290530
1.245456
1.193110
1.226357
1.280479
1.215067
1.166525
1.121506
1.171450
1.063115
1.093220
1.175567
1.165544
1.164484
1.190977
1.189973
1.154708
1.122810
1.163092
1.231739
1.204708
1.170921
1.140564
1.171542
1.159843
1.110770
1.121572
1.164231
1.100057
1.112859
1.117037
1.156426
1.150761
1.082912
1.157004
1.155151
1.082289
1.138920
1.105557
1.142522
1.203278
1.152054
1.106318
1.121622
1.026499
1.099809
0.991983
0.943352
0.973942
1.002272
1.012131
1.063847
0.955721
0.954086
0.989945
0.987078
0.996049
0.982353
1.017170
1.008436
0.965897
1.007052
1.020358
0.977258
1.066617
1.088380
1.041962
1.021355
1.058031
1.028605
1.090583
1.132075
1.031363
1.040079
1.130812
1.063005
1.079290
1.133100
1.148401
1.153125
1.088767
1.117321
1.193057
1.167732
1.196181
1.093134
1.217739
1.080284
1.537170
1.311619
1.453993
1.171045
1.229386
1.264274
1.243865
1.182495
0.996121
0.916341
0.775074
0.708553
0.697138
0.772578
0.969541
0.954857
1.156756
1.000155
0.986233
1.100623
1.120714
1.007705
0.888252
0.883702
0.878987
0.988814
1.183813
1.424811
1.344810
1.292375
1.300884
1.259308
1.123296
0.913257
0.806382
0.894640
1.116294
1.019021
1.079153
1.196687
1.161471
1.272308
1.216852
1.110634
1.254277
1.228250
1.117585
1.001885
1.083401
1.071019
1.066736
1.040349
1.038361
0.980036
0.966087
0.954071
0.879743
0.854283
0.845313
0.824807
0.846628
0.910558
0.889103
0.942161
1.025542
1.008492
1.071000
1.102108
1.112889
1.106788
1.150556
1.115209
1.194031
1.215489
1.194127
1.225767
1.251569
1.262007
1.258818
1.244922
1.254247
1.211691
1.179478
1.160440
1.128504
1.152272
1.105353
1.139100
1.172451
1.145018
1.214921
1.156606
1.161137
1.181833
1.185457
1.156275
1.190884
1.112943
1.145079
1.112662
1.137987
1.119723
1.144126
1.108542
1.109032
1.107357
1.089807
1.062551
1.069582
1.095866
1.046188
1.054267
1.044091
1.069598
1.103450
1.127596
1.122622
1.226877
1.178306
1.141348
1.125839
1.004294
1.046674
1.007584
0.951487
0.965371
0.946467
0.934121
0.930445
0.923885
0.928890
0.943281
0.945555
0.951647
0.965052
0.996162
0.968370
0.945761
0.978250
0.972036
0.967904
0.998839
1.022975
1.017672
0.973168
1.086387
1.013663
1.048248
1.124441
1.007959
1.064562
1.113592
1.126442
1.147702
1.216570
1.160809
1.198642
1.128248
1.215479
1.262214
1.243789
1.238745
1.236880
1.390877
1.408058
1.426932
1.328253
1.250600
1.494387
1.159463
1.214816
1.192615
1.181397
1.041713
1.082731
1.092974
1.344329
1.270467
1.287331
0.990769
1.272890
1.377916
1.399925
1.445886
0.889962
0.882150
0.899213
0.917884
0.920312
0.929241
0.944246
0.967168
0.990821
1.013665
1.027830
1.046298
1.077007
1.227694
1.239328
1.300848
1.453038
1.063118
1.321076
1.466368
1.359922
1.473599
1.468776
1.472905
1.426783
1.204781
1.437147
1.375630
1.273420
0.904320
0.850739
0.838117
0.777627
0.828287
0.959760
1.330146
1.446992
1.411905
1.490710
1.410155
1.207120
1.108508
1.018390
0.939289
0.995953
1.107521
1.015714
0.841278
0.781077
0.678934
0.643763
0.612521
0.727186
0.727814
0.898232
1.257016
1.450065
1.291857
1.095939
1.035356
1.025267
0.991459
1.067372
1.243687
1.426102
1.406560
1.226468
1.169729
0.978229
1.206842
1.598113
1.598799
1.575210
1.568865
1.383782
1.423565
1.519962
1.542029
1.506264
1.514725
1.497639
1.566313
1.107967
1.395249
1.287951
1.485106
1.503422
1.527838
1.431684
1.443134
1.510156
1.406507
1.575719
1.627234
1.442578
1.405905
1.269536
1.248330
1.134630
1.067971
1.133029
1.391794
1.479943
1.657010
0.956245
0.677516
0.624973
0.708310
1.312952
1.471652
1.421933
1.366949
1.313067
1.262398
1.129208
1.075195
0.920854
0.898595
0.886803
1.003450
0.829400
0.936406
0.972356
1.089534
1.319769
1.367686
1.429358
1.190907
1.130156
0.834931
1.002337
1.036567
0.950985
1.334240
1.344777
1.415783
1.460109
1.512587
1.541695
1.552301
1.525617
1.528972
1.546133
1.540387
1.551550
1.561993
1.576178
1.596150
1.548530
1.418933
1.316705
1.046715
0.876941
0.852585
0.779951
0.797686
0.887366
0.923307
1.042103
1.234243
1.410650
1.544972
1.628496
1.644260
1.573103
1.466723
1.342825
1.117732
1.046802
1.103804
1.336995
1.498084
1.247638
1.129020
1.177070
1.306115
1.422575
1.545545
1.585023
1.551489
1.498046
1.384584
0.832330
0.786166
0.773964
0.827647
1.263309
1.186974
1.412095
1.072683
1.220306
1.483524
1.432935
1.456867
1.435300
1.421473
1.515842
1.543277
1.569765
1.234029
1.487660
1.426821
1.167894
1.040871
0.933289
0.883032
0.923026
1.057566
1.288563
1.556462
1.569169
1.577989
1.405814
1.174316
1.101985
1.053956
1.011017
1.081802
1.092437
0.983702
0.878358
0.861104
0.739325
0.740604
0.703112
0.788323
1.535220
1.329584
1.131130
1.044012
1.055694
1.207354
1.217643
1.499245
1.497937
1.539199
1.510663
1.319786
1.352291
1.359793
1.643204
1.569318
1.565913
1.410826
1.484022
1.558035
1.505832
1.541446
1.519518
1.583050
1.449780
1.147542
1.372120
1.395197
1.171678
1.233388
1.510396
1.426953
1.514347
1.550899
1.593136
1.606208
1.553502
1.458563
1.388554
1.342639
1.252893
1.262971
1.151608
1.108696
1.179880
1.418641
1.568483
1.592395
1.140733
0.986647
0.715598
0.616351
0.572194
0.693519
1.570822
1.566248
1.461796
1.422116
1.403342
1.358381
1.277195
1.228104
1.127107
1.082416
1.023810
0.909042
0.956145
1.134457
1.363371
1.330603
1.296607
1.087358
1.590779
1.514616
1.461715
1.421222
1.353211
1.152988
1.531678
1.507161
1.407506
0.859636
1.216208
0.999885
1.165481
1.113831
1.156118
1.205009
1.167092
1.208235
1.228736
1.140929
1.175289
1.172139
1.110685
0.934823
0.833045
0.836222
0.896886
0.989457
1.145868
1.328120
1.330512
1.300600
1.289827
1.238010
1.216297
0.937251
1.086323
1.066117
1.052968
1.023339
0.997577
0.970829
0.946713
0.858315
0.811839
0.790510
0.804411
0.826305
0.854311
0.845309
0.939227
1.037377
1.002815
1.041667
1.108047
1.109426
1.138707
1.105703
1.126960
1.179255
1.204155
1.210028
1.217079
1.253690
1.281977
1.262864
1.253025
1.176340
1.174382
1.161753
1.175855
1.137027
1.148714
1.140427
1.142971
1.134826
1.214469
1.176126
1.186185
1.128992
1.163607
1.125828
1.148041
1.138037
1.212873
1.122368
1.123776
1.083268
1.124501
1.067289
1.066663
1.093524
1.057524
1.044397
1.057276
1.098246
1.099479
1.057588
1.035743
1.051443
1.046879
1.108677
1.102696
1.171119
1.102781
1.092290
1.065239
1.010346
1.034739
0.991122
0.925720
0.925614
0.945592
0.927921
0.901274
0.897853
0.890352
0.897154
0.917940
0.883898
0.944226
0.934162
0.912422
0.941459
0.988867
1.000806
0.996888
1.019805
0.982760
0.984233
0.998063
1.075385
1.080155
1.160396
1.035905
1.107252
1.086889
1.075117
1.102710
1.145641
1.153094
1.166864
1.198256
1.186083
1.261897
1.306661
1.311868
1.305898
1.287102
1.357345
1.316847
1.271857
1.214765
1.074136
1.311348
1.396025
0.899669
0.891746
0.894657
0.919258
0.925963
0.943599
0.967032
0.993416
1.005942
1.028507
1.059272
1.172558
1.063613
1.194480
1.324433
1.341711
1.408060
1.471575
1.500713
1.491092
1.506525
1.506582
1.512310
1.529094
1.547919
1.563022
1.547284
1.471944
1.405289
1.286271
1.112928
0.953634
0.885572
0.919616
0.993664
1.082873
1.238771
1.442240
1.572612
1.599757
1.628035
1.548731
1.464173
1.372581
1.187020
1.124070
1.119297
1.297257
1.561410
1.435688
1.324906
1.249326
0.893080
1.134058
1.114591
1.185420
1.226700
1.295497
1.406088
1.279510
1.353781
1.353154
1.144550
1.138832
1.019962
0.896464
0.867202
0.874294
0.923686
1.019270
1.116607
1.211096
1.278409
1.287080
1.242422
1.198880
1.177114
1.108564
0.947651
0.987058
1.136284
0.990600
1.272680
1.321934
0.982566
1.292699
1.341138
1.374689
1.401141
1.398855
1.427678
1.434419
1.451335
1.478843
1.483724
1.496569
1.509179
1.524442
1.513041
1.409176
1.316512
1.226827
1.099619
1.026016
0.967025
0.949460
0.981905
1.065060
1.189378
1.391870
1.575940
1.575853
1.553049
1.520344
1.420307
1.256131
1.160225
1.154397
1.264433
1.463816
1.309504
1.347070
1.495667
1.564050
1.461276
1.408225
1.459070
1.552665
1.534701
1.512555
1.467146
1.433035
1.323430
1.208097
0.944372
0.808943
0.797830
0.890485
1.064401
1.088501
1.072722
1.160146
1.169179
1.147216
1.045193
0.994180
0.973723
0.967009
0.964204
0.973415
0.985384
1.006841
1.031145
1.046829
1.064036
1.076863
1.068036
1.044602
0.997665
0.959611
0.816565
0.764384
0.764210
0.765885
0.821007
0.781944
0.935359
1.051055
1.056498
1.062654
1.136588
1.122450
1.136376
1.133290
1.161843
1.174821
1.159192
1.173665
1.240007
1.301189
1.210940
1.164639
1.124432
1.163293
1.130878
1.203471
1.141864
1.120652
1.157421
1.140872
1.110911
1.151057
1.178707
1.193289
1.155773
1.139258
1.115781
1.140834
1.130594
1.136314
1.091281
1.124386
1.102403
1.115478
1.097612
1.095096
1.041508
1.017607
0.993158
0.976504
1.015464
1.017462
1.008641
1.000657
1.024623
1.038338
1.107451
1.115293
1.141922
1.059061
1.051882
1.016014
0.991731
0.973510
0.980908
0.922602
0.923031
0.894519
0.890559
0.905009
0.858337
0.851919
0.873948
0.880823
0.874078
0.890279
0.934883
0.903382
0.951615
0.938111
0.940517
0.968520
0.999006
0.996542
0.938495
0.997257
1.003748
1.032487
1.050810
1.061598
1.095087
1.149792
1.039133
1.077183
1.119776
1.189498
1.193655
1.167284
1.252209
1.262418
1.315109
1.310796
1.317085
1.333960
1.387020
1.423117
1.378457
1.478866
1.063263
0.817119
1.228072
1.360885
0.784021
0.874883
1.131323
1.506494
1.346320
1.142391
1.059196
1.077709
1.238700
1.370179
1.414816
1.482856
1.429766
1.490843
1.557688
1.515419
1.392370
1.386879
1.481665
1.455716
1.508298
1.517698
1.466721
1.521023
1.516389
1.438876
1.352676
1.402903
1.269782
1.162050
1.124875
1.323213
1.305184
1.441443
1.484063
1.562021
1.589833
1.582712
1.427669
1.499938
1.526347
1.487461
1.442887
1.329555
1.382661
1.520518
1.282608
1.401216
1.478858
1.523121
1.576425
1.491352
1.501019
1.388199
1.335529
1.338727
1.212020
1.243673
1.203769
1.239024
1.435696
1.553441
1.543788
1.210227
1.081104
0.988299
0.695431
0.631517
0.569143
0.572848
0.681322
1.553750
1.568925
1.523215
1.531056
1.466684
1.388238
1.333026
1.260393
1.223079
1.170228
1.075391
0.992685
0.903595
1.000954
1.172570
1.295686
1.419024
1.417133
1.452979
1.414229
1.422994
1.323891
1.103988
0.953707
0.895350
0.925351
0.893838
0.949616
1.531049
1.058633
1.032290
1.000235
1.025984
1.126059
1.271036
1.332221
1.394260
1.485975
1.559983
1.584313
1.559197
1.505250
1.467903
1.427218
1.371778
1.243084
1.201848
1.263054
1.325580
1.409968
1.422369
1.396415
1.349189
1.300003
1.420284
1.524976
1.529030
1.527232
1.447999
1.379794
1.342799
1.350751
1.283588
1.169887
1.025336
1.058389
0.945152
0.951089
1.029995
1.133437
1.030808
1.326946
1.208418
1.119853
1.170744
1.140911
0.977242
0.934540
1.141463
1.127925
1.360013
1.439634
1.481120
1.424810
0.921198
1.350762
1.350191
1.365554
1.407845
1.429483
1.435774
1.438813
1.558806
1.594911
1.563862
1.533723
1.146952
1.017904
0.947908
0.939816
1.052092
1.156654
1.351361
1.505079
1.549990
1.568978
1.445569
1.227274
1.144503
1.071672
1.086683
1.068062
1.025757
0.977325
0.889144
0.823126
0.833675
1.149049
1.203023
1.223028
1.215638
1.185273
1.144083
1.142566
1.091350
1.034298
1.017534
0.999743
0.986976
0.992456
0.998087
1.000659
1.023031
1.033550
1.083411
1.100964
1.107424
1.109785
1.039916
0.976485
0.824489
0.739977
0.747699
0.743384
0.755665
1.022750
1.067145
1.122265
1.076386
1.137457
1.137444
1.117845
1.094772
1.087119
1.087978
1.098634
1.182462
1.258473
1.247361
1.145953
1.152401
1.110951
1.146494
1.145813
1.165823
1.137006
1.118439
1.168981
1.165200
1.145094
1.126786
1.154788
1.186744
1.161407
1.120939
1.099951
1.161143
1.142590
1.134124
1.098770
1.092545
1.053251
1.126614
1.051756
1.010164
1.015074
1.020937
0.987902
0.984543
0.995008
1.010057
1.007047
0.998132
0.998833
1.053495
1.067561
1.042118
0.977583
0.987016
1.009890
1.015848
0.981751
0.947902
0.937250
0.913514
0.900564
0.883990
0.870182
0.855924
0.843659
0.859809
0.866712
0.869656
0.886764
0.904236
0.903166
0.927106
0.917741
0.977276
0.986870
0.979245
0.967971
0.998624
1.006106
1.005505
1.012354
1.099114
1.106678
1.119906
1.135151
1.119792
1.149330
1.142738
1.171576
1.178931
1.229658
1.273936
1.262141
1.297578
1.269252
1.295300
1.357492
1.398978
1.460143
1.415383
1.453978
1.463509
1.144240
0.854281
0.861354
1.303084
1.368117
1.419269
1.472987
1.455022
1.459040
1.510945
1.443693
1.440136
1.420968
1.468871
1.422215
1.469671
1.507729
1.495320
1.090848
1.089734
1.055497
1.051067
1.121578
1.161404
1.253813
1.308539
1.375300
1.424846
1.441641
1.526652
1.560634
1.506049
1.383601
1.473249
1.308488
1.293120
1.252857
1.267519
1.380306
1.310064
1.421694
1.331767
1.332717
1.338975
1.348456
1.321779
1.402079
1.441479
1.464560
1.433385
1.412214
1.358163
1.338024
1.326507
1.250018
1.112882
0.947514
1.257975
1.458485
1.516841
1.581757
1.440581
1.009172
0.965320
0.981157
1.118182
1.246680
1.391681
1.483580
1.520292
1.532944
1.402329
1.208228
1.106994
1.067577
1.139520
1.071410
0.959320
0.936719
0.848278
0.838343
0.845532
1.430738
1.304777
1.109756
0.965717
0.947733
0.950727
1.017036
1.012672
1.067034
1.051725
1.096313
1.146833
1.163834
1.177745
1.160285
1.116970
1.085411
1.110614
1.088624
1.241673
1.258954
1.405991
1.519774
1.501690
1.282843
1.097575
0.996875
0.911635
0.706004
0.648504
0.572930
0.564744
0.570436
0.645183
1.553888
1.574567
1.571785
1.564364
1.473754
1.435164
1.372350
1.302723
1.246944
1.198709
1.153314
1.054225
1.031861
1.059962
1.066213
1.052254
1.032542
1.023238
1.023925
1.042198
1.075511
1.141672
1.156842
1.155658
1.089313
1.019684
0.915447
0.708315
0.689729
0.690880
0.694912
1.091731
1.159815
1.133146
1.102107
1.115332
1.114954
1.103664
1.055470
1.030695
1.051581
1.139902
1.148601
1.211650
1.300290
1.134950
1.301108
1.183120
1.154602
1.134983
1.161200
1.175223
1.172556
1.170767
1.181291
1.208134
1.142848
1.143674
1.180606
1.156359
1.119870
1.129364
1.155377
1.100778
1.053902
1.128183
1.034105
1.055251
1.077580
1.054234
1.015283
1.045739
1.003842
1.002658
1.006834
1.003544
0.986334
0.967489
0.980051
0.994524
1.020645
1.012736
0.965000
0.894085
0.862920
0.934232
0.965800
0.952710
0.941635
0.919473
0.903510
0.888989
0.878833
0.890816
0.869187
0.839233
0.850400
0.844238
0.838651
0.842410
0.847525
0.866073
0.852799
0.863292
0.876301
0.905530
0.953655
0.945503
0.953738
0.956110
0.989297
0.965929
0.973302
0.977572
1.016464
1.021768
1.091831
1.134683
1.108752
1.078128
1.124529
1.119513
1.174501
1.185984
1.234151
1.218601
1.286540
1.273918
1.293160
1.267750
1.312165
1.323776
1.397492
1.452065
1.541205
1.471289
1.463709
1.191028
1.148002
1.096735
1.077409
1.129113
1.152510
1.158292
1.246163
1.276059
1.367240
1.389328
1.472501
1.501090
1.536760
1.498987
1.493820
1.416466
1.277036
1.295650
1.270239
1.296412
1.366163
1.321553
1.340500
1.335481
1.353310
1.316078
1.312986
1.353598
1.365767
1.429909
1.444255
1.434058
1.420752
1.392645
1.367825
1.354857
1.320708
1.317821
1.276883
1.218666
1.086049
1.172182
0.965367
1.214455
1.113501
1.106013
1.175274
1.199290
1.183853
1.281852
1.104726
1.068010
1.111132
1.072135
1.203083
1.281202
1.321441
1.172802
1.187392
1.125780
1.090395
1.028469
1.355836
1.251189
1.440774
1.380827
1.347958
1.326458
1.323396
1.378619
1.396693
1.410611
1.430072
1.442254
1.458379
1.464811
1.484674
1.454691
1.351382
1.286177
0.975811
0.955603
0.936054
1.175954
1.254156
1.289628
1.346579
1.382986
1.401950
1.529955
1.474251
1.402733
1.380730
1.316722
1.310800
1.219458
1.053918
1.106743
1.348312
1.351665
1.433396
1.304472
1.163103
1.114830
1.122496
1.206774
1.255488
1.324473
1.415120
1.437725
1.490263
1.113634
1.221887
1.408981
1.411169
1.395083
1.439688
1.474899
1.462520
1.474656
1.477180
1.128563
1.175320
1.044906
1.097595
1.135931
1.145199
1.132797
1.111095
1.082359
1.058571
1.070794
1.276664
1.401376
1.485044
1.463273
1.297821
1.147471
0.989028
0.931188
0.851506
0.735577
0.800675
0.609475
0.568109
0.558482
0.567488
0.636326
1.486415
1.546532
1.569280
1.523788
1.458334
1.469903
1.480837
1.474777
1.455777
1.501431
1.475080
1.459596
1.466231
1.437698
1.422319
1.053468
1.049347
1.054311
1.074465
1.144008
1.034697
0.672088
0.722400
0.761874
0.717008
1.155136
1.165185
1.134063
1.111310
1.085487
1.074880
1.051299
0.992426
0.993229
1.049864
1.075784
1.074264
1.399627
1.089021
1.364396
1.336343
1.192489
1.102774
1.159157
1.160854
1.151803
1.150273
1.133847
1.144883
1.191879
1.211803
1.140442
1.152664
1.161629
1.133752
1.104371
1.125996
1.078045
1.058715
1.083353
1.010730
1.066881
1.046740
1.078563
1.012294
1.049167
1.000046
1.024711
0.979537
0.987138
0.972830
0.962967
0.965302
0.987417
0.992858
0.976304
0.913285
0.800643
0.721517
0.880518
0.897808
0.917187
0.920487
0.908851
0.892638
0.876666
0.855568
1.369512
1.044948
1.037531
1.044682
1.090239
1.121652
1.213045
1.072222
0.760147
0.726337
0.844179
0.771905
1.060770
1.104079
1.075593
1.070593
1.059898
1.050363
1.025610
0.927773
0.981138
1.016756
1.044668
1.163804
1.208457
1.031757
1.375081
1.269086
1.159684
1.165475
1.139096
1.140025
1.142302
1.139016
1.151112
1.193928
1.221164
1.212208
1.125158
1.132320
1.157653
1.156000
1.125711
1.149235
1.072353
1.099712
1.062389
1.071247
1.037217
1.050225
1.043429
1.054713
1.073760
1.032893
1.031139
0.985938
0.937112
0.940280
0.974478
0.971200
0.968135
0.946531
0.886995
0.742715
0.699001
0.824698
0.827320
0.875854
0.887783
0.889944
0.891951
0.862835
0.835484
0.847022
0.977049
0.995572
0.904977
0.968206
1.062553
1.093840
1.270462
1.386191
1.344524
1.227100
1.142719
1.125519
1.098066
1.233639
1.335689
1.390625
1.333495
1.387022
1.370322
1.442857
1.413118
1.466492
1.432332
1.448375
1.399499
1.464037
1.493710
1.468246
1.470481
1.477780
1.478567
1.474830
1.491544
1.448017
1.467191
1.267014
1.250350
1.260499
1.308355
1.236783
1.244602
1.095208
1.112932
1.016498
1.031096
0.951433
0.882664
0.890121
0.893978
1.044745
1.095673
1.170405
1.216840
1.259492
1.308680
1.309048
1.309493
1.496253
1.549713
1.475786
1.312408
1.210077
1.163217
1.040909
1.032819
1.012719
1.043171
1.168802
1.297607
1.399628
1.476847
1.465091
1.469433
1.354078
1.177417
1.087476
1.073441
1.094195
1.059038
1.016544
0.946274
0.866525
0.841897
0.847479
1.154720
1.117192
0.779556
0.788231
0.825463
0.911305
0.991744
1.011203
1.019061
1.013180
1.021872
1.002773
0.934250
0.947658
1.012175
1.145134
1.241126
1.173686
1.155408
1.159428
1.209010
1.186863
1.145284
1.145017
1.132010
1.160216
1.143632
1.165891
1.141691
1.172696
1.177130
1.127190
1.129366
1.181996
1.151697
1.127630
1.122194
1.056529
1.032901
1.051290
1.073269
1.046811
1.047954
1.055306
1.026497
1.062363
1.046169
1.022853
0.996824
0.938630
0.950056
0.963220
0.954873
0.954757
0.938256
0.965259
0.668882
0.850132
0.780102
0.839296
0.862262
0.887552
0.908366
0.877559
0.865078
0.841423
0.832694
0.851420
0.849408
0.833297
0.827562
0.843515
0.846453
0.857084
0.841675
0.847821
0.874591
0.900326
0.899713
0.953636
0.939387
0.942917
0.986858
0.962467
0.979016
0.990786
1.035120
1.036884
1.106351
1.105426
1.107566
1.129045
1.155846
1.121563
1.228225
1.227202
1.211266
1.223401
1.236343
1.257797
1.258857
1.272714
1.307121
1.313704
1.361552
1.416472
1.510915
1.145148
1.030867
1.548770
1.493819
1.449486
1.422550
1.337918
1.366713
1.316907
1.304221
1.302116
1.482018
1.394981
1.295680
1.166207
1.057757
0.973881
0.856754
0.737353
0.752890
0.731688
0.592506
0.567383
0.562849
0.580890
0.685839
1.439903
1.526019
1.534794
1.510194
1.468356
1.412678
1.373339
1.287189
1.188910
1.236691
1.130086
1.123763
1.123979
1.126416
1.422566
1.345689
1.449830
1.190191
1.345216
1.398477
1.375499
1.388511
1.386586
1.392757
1.409928
1.423659
1.430483
1.435988
1.400646
1.366149
1.251417
0.820073
0.828742
0.845063
0.839213
0.850787
0.844689
0.859301
0.874774
0.891510
0.900634
0.959861
0.973560
0.942285
0.938094
0.940763
0.979114
0.991133
1.046521
1.038290
1.081607
1.097301
1.100172
1.123150
1.128700
1.152073
1.209106
1.200050
1.200057
1.199254
1.213834
1.208741
1.207962
1.238601
1.258227
1.289130
1.355161
1.409417
1.446145
0.865949
0.954139
0.990285
1.094095
1.187551
1.201341
1.349750
1.290132
1.209648
1.150905
1.126269
1.142229
1.205211
1.275905
1.339465
1.293934
1.318070
1.343782
1.394953
1.421285
1.436563
1.420098
1.421561
1.421238
1.435984
1.457791
1.407133
1.388019
1.372759
1.372420
1.370205
1.354370
1.327439
1.310488
1.295781
1.276320
1.243051
1.170263
1.041224
1.095146
1.282822
1.355839
1.156824
1.289043
1.220664
1.111187
1.058233
0.976396
1.090913
1.050375
1.012260
0.949785
0.907950
0.856505
0.849187
1.341215
1.257941
1.189108
1.176283
1.115286
1.091935
1.115954
1.153222
1.134589
1.120862
1.099514
1.069326
1.049252
1.021272
0.981489
1.040292
1.056754
1.526407
1.529167
1.473081
1.401251
1.408055
1.405131
1.339468
1.299373
1.317927
1.237789
1.266482
1.273688
1.347808
1.390719
1.403143
1.389735
1.365649
1.248579
1.178814
1.219333
1.276334
1.252129
1.294710
1.398120
1.300883
1.376007
1.213397
1.134197
1.064832
0.972995
0.871192
0.735130
0.655536
0.575913
0.565397
0.560685
0.583277
0.738077
1.482523
1.508859
1.517368
1.494096
1.443498
1.450248
1.349939
1.290801
1.296476
1.181700
1.229980
1.222035
1.188748
1.211754
1.225027
1.345665
1.342829
1.371347
1.372663
1.347290
1.321130
1.271551
1.273848
1.250394
1.275711
1.250036
1.257017
1.159618
1.132535
1.252788
0.873299
1.313209
1.038869
0.982715
1.239181
1.147008
1.114933
1.469020
1.485353
1.371435
1.364994
1.386202
1.391700
1.397510
1.384828
1.360955
1.322439
1.248842
1.199907
1.145403
1.098013
1.159719
1.166928
1.221708
1.261326
1.330770
1.343304
1.394214
1.436595
1.506376
1.482347
1.434520
1.453039
1.377366
1.449234
1.321794
1.334483
1.323426
1.353467
1.310505
1.323257
1.362727
1.284451
1.270982
1.277051
1.311041
1.361286
1.047965
1.088378
1.232179
1.327983
1.375031
1.442929
1.428447
1.410992
1.315586
1.166209
1.067709
1.028601
0.996533
0.939134
0.911774
0.884956
0.928829
1.003610
1.504156
1.504768
1.522183
1.484499
1.413004
1.403281
1.382989
1.305970
1.333304
1.307084
1.288778
1.294581
1.265212
1.307667
1.317952
1.335588
1.354806
1.355560
1.352822
1.342825
1.300194
1.266969
1.274165
1.197746
1.141763
1.127600
1.163692
1.107988
1.230454
1.275620
1.263456
1.272006
1.353959
1.379373
1.347796
1.383377
1.453613
1.398843
1.388122
1.372259
1.383897
1.290028
1.305181
1.268484
1.298531
1.276958
1.302185
1.255940
1.313326
1.278997
1.285829
1.295232
1.322609
1.365423
1.062494
1.153089
1.175544
1.174776
1.214569
1.234129
1.223236
1.201296
0.904814
0.930542
0.939183
1.035632
1.123895
1.183694
1.132029
1.251301
1.182439
1.144382
1.115908
1.131941
1.226421
1.285626
1.265726
1.292064
1.287725
1.318353
1.369293
1.408457
1.437388
1.445083
1.438118
1.446050
1.446563
1.458508
1.246695
1.269345
1.262737
1.253059
1.292405
1.207195
1.346141
1.323529
1.095527
1.020476
0.977455
0.939874
0.767135
0.661820
0.628723
0.571818
0.565447
0.591308
0.595179
0.682639
1.511063
1.518766
1.509146
1.475187
1.430930
1.419676
1.404326
1.375027
1.227939
1.253755
1.235125
1.215236
1.176766
1.200936
1.207442
1.249567
0.825920
0.827195
0.834719
0.838193
0.842395
0.866235
0.851332
0.880443
0.894115
0.934352
0.962164
0.941219
0.935904
0.931677
0.962717
1.045494
1.053251
1.076957
1.109765
1.081289
1.107350
1.131624
1.094572
1.177223
1.199313
1.203223
1.199675
1.189957
1.203119
1.193536
1.233156
1.317746
1.226646
1.283858
1.332640
1.380321
1.501608
1.036874
0.992436
0.953941
0.896161
0.861368
0.866442
0.916152
0.873373
1.362392
1.315743
1.247508
1.181370
1.148443
1.117797
1.103836
1.070953
1.018027
0.990797
0.948710
0.904969
1.201880
1.216388
1.185001
1.134299
1.122011
1.095771
1.128537
1.045045
1.003781
0.986840
0.944091
0.897888
0.865320
0.867252
0.898942
1.037989
1.094069
1.070656
1.041279
1.046193
1.133710
1.196269
1.169855
1.200335
1.211069
1.124259
1.148734
1.068866
1.151846
1.236776
1.359129
1.362565
1.382487
1.390754
1.357770
1.256253
1.204557
1.170921
1.103112
1.086831
1.084966
1.041441
1.051184
0.995949
0.913727
0.898513
1.461742
1.476020
1.471963
1.503815
1.514116
1.478296
1.192316
1.120308
1.060230
1.063371
1.046479
1.050191
1.011913
0.856144
1.060362
1.187776
1.142576
1.186518
1.186284
1.153419
1.146382
1.184619
1.227829
1.188862
1.165658
1.174445
1.228290
1.205155
1.150747
1.208002
1.161162
1.092333
1.097095
1.155643
1.077213
1.075134
1.030859
1.058216
1.045507
1.040907
1.038542
1.078454
1.038779
1.044738
1.003540
0.969020
1.294011
1.273542
1.263475
1.237086
1.238707
1.258578
1.256629
1.318355
1.308968
1.278378
1.067994
1.029881
0.992270
0.941905
0.871750
0.744047
0.658034
0.615546
0.569713
0.560943
0.569466
0.809910
0.989792
1.579869
1.513337
1.472918
1.446343
1.436887
1.365488
1.389635
1.359450
1.293811
1.274462
1.270642
1.243798
1.222923
1.192125
1.198727
1.236195
1.284319
1.146123
1.003499
0.986010
0.958214
0.911877
0.868862
0.843247
0.805704
0.959478
1.000227
0.912510
0.989111
1.049460
1.072860
1.112575
0.775044
0.721319
0.819378
0.852286
0.899185
0.948339
1.288215
1.261674
1.234593
1.289158
1.236195
1.258933
1.234930
1.200805
1.217761
1.187673
1.188431
1.100771
1.076206
1.136999
0.888620
1.206708
1.265608
0.931688
0.878008
0.887641
1.491605
1.456319
1.434226
1.366240
1.391302
1.362900
1.345909
1.361092
1.327766
1.286001
0.888350
0.926457
0.958541
1.003750
1.063167
1.191339
1.193180
1.182468
1.176829
1.158755
1.150024
1.141529
1.208379
1.228228
1.191660
1.258980
1.252185
1.271297
1.295891
1.335992
1.361064
1.407478
1.430715
1.465996
1.468251
0.810230
0.815998
0.847199
0.855040
0.856221
0.859930
0.867219
0.893246
0.877860
0.865829
0.886357
0.888730
0.917932
0.926360
0.981568
0.928167
0.933682
0.930460
0.961321
0.994514
1.035920
1.056548
1.073540
1.104565
1.141426
1.153257
1.175062
1.204850
1.190097
1.194211
1.183743
1.190610
1.218750
1.164713
1.180906
1.092298
1.190733
1.105249
1.160866
1.262359
1.353309
1.355808
1.328536
1.320871
1.297106
1.221242
1.004423
0.954588
0.902391
0.949064
0.959973
0.967582
0.939027
0.955172
0.846478
0.715964
0.758908
0.661206
0.704218
0.807760
0.900105
0.908327
0.915488
0.890162
0.856176
0.843165
0.815029
0.851752
0.857577
0.873426
0.869705
0.875468
0.882430
0.904009
0.907436
0.932100
0.837169
1.463067
1.460947
1.298948
1.320247
1.327699
1.318623
1.303221
1.268778
1.269992
1.230564
1.180041
1.143040
1.192346
1.169536
1.209629
1.240587
1.329737
1.247996
1.330820
1.276260
1.336914
1.371237
1.406150
1.347278
1.379612
1.356873
1.318914
1.303068
1.270850
1.306073
1.256548
1.287332
1.243107
1.274236
1.301662
1.300302
0.865252
0.882645
0.925197
0.895514
0.886993
0.911672
0.940030
0.954429
0.934632
0.938838
0.922509
1.006258
0.975113
1.061788
1.060499
1.051673
1.146860
1.097614
1.144378
1.161778
1.194496
1.206865
1.189856
1.186878
1.200775
1.217889
0.839990
1.258226
1.237146
1.255012
1.262359
1.212549
1.226985
1.213653
1.264381
1.245303
1.333412
1.266367
1.088434
1.092084
1.039144
0.989303
0.936007
0.877868
0.817437
0.719528
0.695298
0.622668
0.574312
0.576863
0.587754
0.690628
1.224583
1.516680
1.555839
1.503055
1.482513
1.415869
1.409772
1.062285
0.924264
1.252667
1.187131
1.205067
1.177640
1.170229
1.205752
1.176394
1.174260
1.197335
1.194127
1.200967
1.221226
1.153053
1.203668
1.110999
1.089021
1.097129
1.140577
1.088903
1.045844
1.055506
1.068306
1.110727
1.061820
1.019531
1.050606
1.104198
1.072360
1.040333
0.982557
1.042029
1.184912
1.174983
1.203188
1.201790
1.190854
1.162987
1.173651
1.173093
1.214394
1.181220
1.225109
1.171180
1.170976
1.173686
1.119331
1.087976
1.143153
1.137492
1.069526
1.053399
1.072578
1.063074
1.093138
1.051893
1.003078
1.057872
1.071249
1.054233
1.085313
1.059844
1.025176
0.982016
0.984067
0.958811
0.959140
0.970049
0.930366
0.912866
0.858363
0.723019
0.615613
0.666498
0.697337
0.710980
0.872372
0.870096
0.887466
0.930592
0.926289
0.910791
0.927607
0.923683
0.855314
0.839026
0.853474
0.862670
0.877071
0.888477
0.883976
0.876779
1.465815
1.459299
1.435765
1.423585
1.472013
1.469329
0.926316
0.924442
0.951675
0.974258
1.055251
1.083036
1.118221
1.163358
1.138851
1.153439
1.186453
1.130236
1.093994
1.139328
1.169503
1.194063
1.231814
1.196459
1.221031
1.242392
1.277939
1.309679
1.345410
1.367098
1.437018
1.202070
1.154473
1.280690
1.329149
1.313683
1.272836
1.275935
1.235061
1.178739
1.159961
1.117422
1.064767
1.026534
1.011322
0.983145
1.308227
1.299673
1.299527
1.275163
1.225663
1.226770
1.154003
1.194033
1.206949
1.197669
1.145092
1.022424
0.941792
1.117450
1.374739
1.369753
1.309791
1.290742
1.265184
1.276487
1.258353
1.215827
1.198171
1.210074
1.191261
1.201304
1.287883
1.237377
1.153621
1.124448
1.071971
1.014579
0.996069
0.975429
0.967106
0.874716
0.846036
0.718068
0.748547
0.785530
0.640044
0.587356
0.581635
0.667126
0.740605
1.458838
1.519442
1.517071
1.461462
1.420106
1.421684
1.380570
1.301089
1.289151
1.273856
1.260249
1.248598
1.215511
1.201858
1.219188
1.253834
1.248289
1.061082
1.364758
1.322553
1.318067
1.307570
1.285099
1.306973
1.277790
1.268352
1.261669
1.241220
1.203913
1.223307
1.223951
1.223217
1.225900
1.241304
1.258931
1.305552
1.315964
1.315637
1.311077
1.289698
1.323337
1.299543
1.404785
1.379846
1.353301
1.355678
1.362156
1.331018
1.295785
1.304602
1.317314
1.253319
1.250323
1.232364
1.244204
1.282611
1.330539
1.252248
1.302433
0.910751
0.911675
0.912532
0.944230
0.933733
0.941051
0.925109
0.908894
0.986662
0.992759
1.014506
1.051738
1.047240
1.086995
1.099789
1.104156
1.192197
1.198477
1.222846
1.206457
1.216889
1.213190
1.005404
0.991649
0.976815
0.977752
0.986368
0.990024
0.912611
0.840228
0.722359
0.662877
0.631950
0.604139
0.654400
0.873832
0.910284
0.912881
0.872019
0.908057
0.910251
0.900394
0.916794
0.920738
0.900990
0.862664
0.937102
0.875555
0.893970
0.897661
0.900114
0.890900
0.951424
0.910548
0.953494
0.932974
0.930343
0.942274
1.012145
0.954229
0.995374
1.055895
1.081926
1.127177
1.129819
1.146615
1.147299
1.131695
1.119686
1.131694
1.163276
1.134844
1.172502
1.187924
1.177639
1.223290
1.246247
1.256633
1.276484
1.304142
1.347414
1.350842
1.328168
1.241339
1.270963
1.225890
1.241966
1.244518
1.229428
1.207817
1.244119
1.255157
1.246985
1.271554
1.275458
1.258908
1.252634
1.249293
1.180152
1.222991
1.232536
1.221281
1.252782
1.233738
1.245437
1.225587
1.304041
1.246217
1.257549
1.323724
1.320971
1.335712
1.245882
1.378892
1.397399
1.346552
1.381234
1.358025
1.308441
1.332748
1.301721
1.271751
1.237735
1.290495
1.221491
1.251582
1.321540
1.323217
1.217864
1.306744
1.192532
1.191523
1.306252
1.312432
1.302644
1.271430
1.238457
1.193037
1.185307
1.162370
1.110802
1.074869
1.041721
1.031770
0.987964
0.969069
1.318420
1.296931
1.264578
1.266794
1.240100
1.208130
1.206327
1.170478
1.167507
1.188529
1.192192
1.189862
1.216352
1.145207
1.142500
1.038352
1.018175
0.990858
0.981935
0.956286
0.878260
0.799397
0.688811
0.594811
0.816527
0.638455
0.590384
0.593065
0.642436
0.745615
0.948855
1.010873
1.204376
1.227781
1.427756
1.484398
1.476363
1.411443
1.430501
1.389278
1.359366
1.317321
1.313673
1.292541
1.263446
1.249908
1.251573
1.236318
1.235344
1.230151
0.905898
0.918335
0.920624
0.935713
0.882470
0.906036
0.897173
0.905293
0.920291
0.925101
0.906263
0.947076
0.916627
0.983236
0.934081
0.929022
0.912458
1.204841
1.154920
1.227975
1.147963
1.152252
1.120127
1.106058
1.162926
1.156792
1.105419
1.104649
1.099141
1.068018
1.101425
1.083829
1.037916
1.107040
1.064969
1.101228
0.958681
0.950582
0.936231
1.043635
0.996204
1.043859
1.035347
1.067358
1.108381
1.092801
1.129368
1.100751
1.108357
1.164262
1.158772
1.155574
1.169559
1.149825
1.189009
1.269225
1.258800
1.277259
1.269780
1.220568
1.178549
1.200766
1.158145
1.071609
1.033881
1.046508
1.046008
0.950552
1.202402
1.242384
1.228886
1.235503
1.254652
1.266451
1.256048
1.258931
1.219352
0.810541
0.800205
0.804199
0.906257
0.910580
1.336021
1.426680
1.399520
1.410695
1.392965
1.384022
1.334235
1.331281
1.328280
1.301064
1.269352
1.260352
1.254688
1.251274
1.238537
1.247862
1.247506
1.234650
1.212905
1.202102
1.209877
1.173294
1.156809
1.138045
1.203112
1.132235
1.134477
1.112898
1.067206
1.101381
1.122878
1.116914
1.101210
1.102892
1.091080
1.044051
1.021425
1.008713
0.987512
0.986930
1.002595
1.040421
0.957069
0.819839
0.657116
0.793451
0.658672
0.611081
0.716773
0.901909
0.926399
0.930589
0.933926
0.913557
1.013929
1.003023
0.977976
1.028468
1.037927
1.066784
1.069293
1.131473
1.211686
1.254503
1.355426
1.377997
1.353634
1.333690
1.347928
1.317474
0.919467
0.932976
0.916043
0.896526
0.883331
0.924964
0.966709
0.958139
0.947059
0.939772
0.953045
0.961756
0.976785
0.967823
0.913009
0.971868
0.929308
0.907157
0.928080
0.939991
0.932805
0.948617
0.971093
1.003241
1.011913
1.056991
1.074128
1.095101
1.150994
1.189738
1.195304
0.927415
0.941791
0.952798
0.980221
0.997823
1.009293
1.033939
1.059659
1.078948
1.112172
1.338782
1.327871
1.245862
1.229673
1.327067
1.159999
1.237868
1.335905
1.185065
1.251049
1.207191
1.164701
1.252967
1.248194
1.244533
1.241754
1.258410
1.284602
1.258971
1.269278
1.255791
1.254640
1.208385
1.288414
1.299068
1.307261
1.184646
1.140910
1.115604
1.034161
1.007411
1.012356
0.984925
0.954723
0.948451
0.946796
1.076713
1.143292
1.105349
1.134252
1.129517
1.134155
1.184932
1.178348
1.175517
1.153043
1.141592
1.155659
1.156793
1.154944
1.267784
1.191144
1.229290
1.164441
1.182179
1.094660
1.172369
1.146283
1.132905
1.104414
1.129065
1.102977
1.127286
1.123647
1.079782
1.094308
1.064801
1.083149
1.042386
1.011786
0.993513
0.989417
0.997383
0.999920
0.964297
0.853268
0.651513
0.714673
0.600224
0.601796
0.604867
0.656984
0.693598
0.726345
0.815380
0.906192
0.934461
0.940322
0.921259
0.918354
0.888061
0.901668
0.981567
0.973907
0.957974
0.968662
1.251733
1.216899
1.261162
1.278769
1.304420
1.369960
1.409437
1.409505
1.373296
1.339614
1.307438
1.293977
1.284246
1.270768
1.276151
1.251211
1.241318
1.244134
1.250720
1.201988
1.133600
1.080398
1.067721
1.017178
0.990814
0.975661
0.928093
0.920250
0.855358
0.680324
0.633839
0.636872
0.662234
0.617601
0.599810
0.623143
0.692434
0.987595
0.956510
0.964650
0.983758
0.999361
0.996178
0.971793
1.030986
1.024197
1.064790
1.114615
1.121925
1.097205
1.120383
1.158506
1.157050
1.220692
1.163405
1.179471
1.158009
1.103246
1.130367
1.131456
1.354007
1.308777
1.383630
1.303928
1.289119
1.311925
1.300052
1.248547
1.217556
1.202007
1.222767
1.212098
1.170811
0.998493
0.980185
0.998590
0.947688
0.961323
0.902168
0.950179
0.924785
0.946355
0.949806
0.955981
0.941224
0.960086
0.979856
1.188654
1.192434
1.164614
1.162619
1.183063
1.172000
1.174553
1.174324
1.125508
1.101353
1.115690
1.096903
1.078593
1.106322
1.072877
1.041274
1.012686
0.997316
0.991797
0.991483
0.990511
0.968122
0.860927
0.698398
0.591182
0.576690
0.585636
0.611260
0.629877
0.617451
0.667110
0.756742
0.801193
0.877681
0.939681
0.951594
0.961210
0.956728
0.943783
0.934377
0.917842
0.998624
0.993533
0.981148
1.017021
1.276645
1.260465
1.307908
1.279515
1.301826
1.253404
1.282595
1.333983
1.261895
1.216954
1.265949
1.260451
1.230008
1.285057
1.290620
1.282708
1.103149
1.028332
1.013004
0.971788
1.004863
0.961451
0.942111
0.964063
1.173503
1.345207
1.315689
1.261072
1.264550
1.262106
1.277426
1.262222
1.232511
1.248926
1.227357
1.187153
1.188398
1.209925
1.228777
1.123810
1.131675
1.196406
1.128293
1.137775
1.141732
1.176867
1.102779
1.101992
1.091991
1.061644
1.018462
1.005197
0.986462
0.983112
0.976581
0.969198
0.878652
0.709159
0.605958
0.585613
0.614346
0.752008
0.586751
0.623692
0.688267
0.686898
0.817788
0.836745
0.952532
0.965900
0.979899
0.992661
0.971846
0.952228
0.951796
1.003234
1.015286
1.013173
1.000159
0.979301
0.981071
1.304489
1.295023
1.285727
1.299704
1.291438
1.242491
1.263030
1.236486
1.265530
0.729701
0.602812
0.613289
0.575082
0.766621
0.912095
0.835873
0.668205
0.626106
0.934606
0.964032
0.966524
0.991873
0.941349
0.996962
0.982510
1.011311
1.056997
1.064672
1.051649
1.084436
1.127595
1.129661
1.121055
1.143707
1.121397
1.173784
1.177677
1.218860
1.117941
1.103743
1.106273
1.082880
1.067248
1.236627
1.270874
1.258893
1.318113
1.248411
1.260834
1.319164
1.301926
1.175662
1.232701
1.253852
1.215597
1.214878
1.281065
0.986606
1.027325
1.021629
0.998058
0.991311
0.983323
0.909815
0.910364
0.936562
0.950770
0.967992
0.958115
0.986542
0.985906
1.002120
1.261668
1.316330
1.344316
1.363177
0.729581
0.667311
0.601969
0.575654
0.616803
0.660627
0.658470
0.732627
0.817447
0.937325
1.101601
1.213260
1.253040
1.322221
1.313186
1.267807
1.154035
1.218465
1.154804
1.159904
1.188462
1.171787
1.176575
1.150840
1.159399
1.121473
1.176847
1.127070
1.110084
1.117187
1.071516
1.037537
1.018146
0.981811
0.977771
0.968496
0.973787
0.865528
0.716191
0.655222
0.617519
0.629643
0.760342
1.043544
1.082499
1.140099
1.149618
1.158324
1.161404
1.176368
1.122089
1.129540
1.092790
1.072926
1.047455
1.063123
1.081474
1.078942
1.061180
1.015954
0.995852
0.994975
0.941800
0.886886
1.260429
1.008399
1.032545
1.001671
1.005062
1.053707
1.021559
0.969774
0.976196
0.990101
0.931010
0.936778
0.943549
0.973304
1.011852
1.010674
1.039613
1.050529
1.039672
1.066378
1.037329
1.081083
1.105554
1.097226
1.153715
1.174123
1.125079
1.080624
1.106741
1.063752
1.045047
1.243829
1.267048
1.294520
1.252926
1.256537
1.240431
1.277820
1.231421
1.252508
1.224191
1.275376
1.278870
1.308261
1.082984
1.109834
1.127920
1.097289
1.224512
1.080188
1.091430
1.085881
1.276441
1.273834
1.284023
1.259210
1.247260
1.083641
1.196042
1.202575
1.219034
1.212739
1.233844
1.192079
1.191357
1.167481
1.158815
1.135397
1.135042
1.117370
1.092488
1.061703
1.036370
0.987581
0.955765
0.955411
0.901713
0.866346
0.725175
0.627221
0.603819
0.627759
0.624706
0.661883
0.590697
0.801266
0.850322
0.833061
0.968970
0.972510
1.009810
1.010529
0.987900
0.998325
1.013491
1.005111
1.040997
1.064064
1.033300
0.773078
0.778243
0.820146
0.867076
0.964205
1.077254
1.153683
1.211351
1.250159
1.253167
1.271498
0.837393
0.850449
0.847498
0.900940
0.991814
1.061132
1.125714
1.167376
1.194921
1.201365
1.225947
1.276604
1.246512
1.032503
1.056721
1.066980
1.063543
1.058160
1.032305
1.024817
1.038596
1.021237
1.024935
0.952361
1.022870
1.239032
1.288293
1.232129
1.231281
1.188900
1.170578
1.213232
1.194136
1.226215
1.181950
1.236621
1.279787
1.222227
1.249675
1.120977
0.911769
0.919689
1.031186
1.040228
1.043679
1.051093
1.035199
1.018843
0.954499
1.006080
0.993217
1.033830
1.093813
1.125023
1.157336
1.180956
1.231719
1.230323
1.239723
1.266791
1.293617
1.267182
1.208255
1.214791
1.176131
1.202329
1.156238
1.192285
1.203882
1.196004
1.185059
1.148481
1.211089
1.207273
1.188909
1.171210
1.146859
1.120153
1.089531
1.050464
1.269666
1.127173
1.190744
1.182165
1.142127
1.018066
1.197824
1.197334
1.248237
1.184300
1.196450
1.036297
1.218587
1.154716
1.088578
1.102229
1.260125
1.351613
1.176992
1.500045
1.498993
1.503657
1.563564
0.969379
0.912049
0.893481
1.473735
1.483247
1.499147
1.446767
1.542286
1.535263
1.562837
1.181924
1.203154
1.233280
1.127346
1.011177
0.954677
1.097100
0.993764
0.887618
1.049962
0.998263
0.952997
0.971701
0.997190
1.435522
1.445306
1.434515
1.454240
1.442446
1.421004
1.441445
1.409941
1.380585
1.345684
1.398747
1.390346
1.360807
1.348304
1.302070
1.232442
1.210832
1.219703
0.938513
0.987301
0.946478
1.086523
1.119016
1.098043
1.175471
1.197822
0.985307
0.931993
0.949944
0.904802
0.861065
0.916048
0.978249
1.005812
1.064577
1.022310
1.230787
1.273202
1.230162
1.019254
1.021676
1.001416
1.240936
1.263830
1.257924
1.282385
1.274519
1.258190
1.162828
1.179093
1.206578
1.445003
1.312261
1.146579
1.556877
1.577194
1.562001
1.342040
1.474105
1.133958
1.141290
1.146204
1.131291
1.186217
1.264158
0.632425
1.303418
1.296424
1.047741
1.107596
1.205124
0.992709
0.975700
1.116732
1.133627
1.012819
0.969311
1.005742
0.940468
0.966913
1.160597
1.110462
1.102186
1.245070
0.899796
0.944514
1.210732
1.113073
0.932702
1.052312
1.170364
1.003695
1.022997
1.013462
1.007019
1.108209
0.989653
1.215176
1.119336
1.126910
1.165924
1.129193
1.228636
1.125020
1.307857
1.257052
1.261830
1.247998
1.196919
1.036822
1.025692
1.073526
0.961225
1.045069
0.995529
1.069796
1.096832
1.141734
1.185312
1.184819
1.109200
1.092268
0.964427
0.868610
0.838242
1.068307
1.030890
1.009683
0.989402
0.951884
0.920156
0.895997
0.875622
0.874008
0.862020
0.863815
0.844874
0.842880
0.867004
0.898585
0.916732
0.934967
0.918796
0.965597
0.980303
0.966571
1.112754
1.292678
1.093552
0.797428
0.813423
0.867422
0.828253
0.848324
0.856991
0.856924
0.849894
0.850142
0.861062
0.863115
0.869325
0.875774
0.907789
0.919541
0.915350
0.912837
0.948825
1.005298
0.874951
0.897663
0.860458
0.943187
0.941968
1.039180
0.907399
1.155347
0.841828
0.767970
0.826794
0.888016
1.032607
0.995232
1.025457
1.080686
1.060238
1.032153
1.131971
1.068415
1.100621
1.033499
1.023064
1.005576
0.988624
1.043938
0.972148
1.031066
1.000721
1.015652
0.998830
1.021133
1.021637
1.056766
1.053937
1.075332
1.073023
1.103033
1.103396
1.120237
1.092279
1.128611
1.151680
1.075587
1.182529
1.143108
1.258859
1.231935
1.148838
1.203308
1.116636
1.266304
1.206702
1.175807
1.175756
1.112554
1.120626
1.144931
1.104667
1.061608
1.071690
1.033097
1.063157
1.040783
1.105438
1.244003
1.210823
0.912929
0.876631
1.229160
0.930720
0.979604
0.922888
0.917884
0.976654
1.150756
1.332324
1.095024
0.875204
1.060347
0.938265
0.786809
0.897150
1.029543
1.262690
1.275632
1.286649
0.879456
0.868744
1.059653
0.826489
0.932998
0.937184
0.984600
0.855050
0.759087
0.786560
0.761571
0.955748
1.143321
1.100323
1.397539
1.319662
1.075160
1.092938
1.065229
1.069553
1.016058
0.886341
1.112729
1.017408
1.083834
1.142266
1.114177
1.131416
1.126083
0.976162
1.084893
1.022748
0.838219
1.231087
1.114604
1.255948
1.173264
1.254078
1.138114
1.135990
1.173979
1.199639
0.997662
1.030074
1.291161
1.264418
1.309919
1.274676
1.200402
1.306860
1.357735
1.325929
1.224998
1.197697
1.124623
1.039343
1.020867
0.966518
1.041312
1.111231
1.160539
1.189391
1.258641
1.237476
1.182022
1.038506
0.932712
0.829046
0.816069
0.852083
0.888338
1.068415
1.201814
1.127763
1.194123
1.212622
0.944562
0.943443
0.957175
0.932946
0.946049
0.982386
0.977675
1.034382
0.840668
0.800968
0.812370
0.865006
0.873110
0.920073
0.944101
0.989899
1.042675
1.066912
1.049098
1.081496
1.097445
1.082020
1.071967
1.055081
1.019180
0.979428
0.984962
1.040143
0.958316
0.971718
0.984733
1.031045
0.970759
1.001133
1.031929
1.044513
1.060860
1.072910
1.088035
1.108117
1.104209
1.096027
1.129295
1.164350
1.147274
1.180472
1.189782
1.225534
1.220124
1.219521
1.215784
1.226484
1.264351
1.185718
1.205675
1.182834
1.128297
1.133967
1.105243
1.082639
1.048421
1.034238
0.984929
0.960766
0.950053
1.314903
0.914725
0.856134
0.831278
0.883106
0.983629
1.161224
1.188654
1.199321
1.062369
0.870154
0.862190
0.777647
0.782011
1.177689
1.116553
1.262307
1.407965
1.075938
0.836454
0.862183
0.848468
0.828196
0.883642
0.919914
0.850076
0.799620
0.791341
0.868880
0.969470
0.927881
0.855774
0.826809
0.844494
0.847583
0.962793
1.023830
1.093275
1.098698
1.200252
0.901436
0.885369
0.980227
1.094705
1.264683
1.292899
1.370877
1.342804
1.285798
0.994051
0.916929
0.840869
0.793688
0.837590
0.930226
0.799089
0.730196
0.733411
0.722397
0.778822
0.869907
0.826548
0.754110
0.822693
0.847950
0.809246
0.811229
0.822495
0.849562
0.879291
0.895379
0.899803
0.921291
0.911100
0.955035
0.928141
0.895516
0.866439
0.865511
0.849754
0.846258
0.801395
0.811491
0.851608
0.824639
0.823260
0.880710
0.866699
0.842509
1.042600
0.996894
1.003147
1.074170
1.086758
1.127691
1.130627
1.088928
1.085543
0.904712
0.942683
0.879401
0.963497
1.211599
1.191453
1.146043
1.115621
1.190491
1.232856
1.265111
1.256053
1.314286
1.371987
1.314532
1.308344
1.255292
1.247561
1.263973
1.287245
1.224763
1.219733
1.149923
1.110667
1.091057
1.107332
1.153345
1.203243
1.203517
1.233171
1.271334
1.156248
1.025582
1.007287
0.893190
0.833325
0.863212
0.919088
0.895045
0.953739
1.091571
1.237748
1.055124
1.267555
1.280835
0.999360
0.948077
0.935203
0.915854
0.870267
0.857307
0.824660
0.847982
0.807290
0.757189
0.878058
0.829604
0.825374
0.924629
1.041882
0.974343
0.983813
1.150130
1.286825
1.377116
1.291188
1.231956
1.214966
1.263320
1.226102
1.083237
1.034826
1.017710
0.938325
0.961847
0.939569
0.893859
0.789444
0.761917
0.815111
0.812406
0.960847
0.976904
0.981734
1.010496
1.025222
1.055710
1.074107
1.046051
1.071748
1.041173
1.030850
1.042294
1.028655
0.980876
0.976763
0.997377
0.938587
0.937812
0.948548
0.949859
0.949588
0.952473
0.929890
0.981800
0.974681
0.998814
1.022887
1.037186
1.048168
1.058506
1.083438
1.095186
1.114754
1.118649
1.161540
1.175669
1.153261
1.153942
1.173519
1.231152
1.214513
1.218647
1.229903
1.240097
1.255514
1.202869
1.163697
1.130216
1.103105
1.097716
1.072268
1.016546
0.996268
0.909640
0.829075
0.921053
0.986719
1.133142
1.173647
1.068419
1.235829
1.119375
0.951136
0.974906
1.037872
1.233274
1.311588
1.360783
1.336909
1.022510
0.928244
0.881361
0.849410
0.837011
0.792958
0.827257
0.692848
0.682592
0.692007
0.683967
0.761993
0.820584
0.985008
0.808050
0.856342
0.794266
0.776809
0.805710
0.855959
0.894300
0.907989
0.955547
0.946126
1.217683
1.314576
1.007562
1.037980
1.021541
1.080058
1.330395
1.234788
1.239657
1.226499
1.194710
1.212877
1.321055
1.323938
1.254399
1.274563
1.257524
1.329631
1.356829
1.382533
0.974374
1.211026
1.386032
1.307440
1.233455
1.254842
1.208673
1.213298
1.183950
1.282478
1.313131
1.340327
1.300620
1.269499
1.261517
1.404387
1.357206
1.354008
1.334687
1.287908
1.276553
1.263663
1.225837
1.163213
1.096924
1.058880
1.111885
1.149215
1.188418
1.223528
1.257620
1.271127
1.077467
1.026641
1.042531
0.869433
0.852252
0.915370
0.927065
0.946230
0.955041
0.956064
0.984744
1.037157
1.089070
1.031116
0.930280
0.918415
0.919046
0.816657
0.806389
0.887233
0.759519
0.933128
0.963431
1.022675
1.014254
1.038163
1.056664
1.046929
1.046203
1.021841
1.010664
1.025409
1.015441
0.984008
0.984825
0.995144
0.961923
0.932247
0.962906
0.940665
0.951073
0.919413
0.920423
0.939014
0.977635
0.956347
0.979805
1.005625
1.040051
1.035004
1.035951
1.051770
1.073377
1.085118
1.091398
1.121344
1.151807
1.187031
1.223049
1.199685
1.168136
1.211310
1.170246
1.227774
1.236523
1.192834
1.206801
1.222576
1.140410
1.076691
1.091191
1.100366
1.036143
0.983308
1.079666
1.087632
1.147871
1.146796
1.150491
1.107913
0.969158
0.946976
0.934999
0.964548
0.939829
0.902191
0.995673
0.957073
0.923212
0.982719
1.071994
1.039442
0.994934
0.993361
1.120355
1.307234
1.291279
1.291560
1.257315
1.192209
1.205512
1.200180
1.167155
1.158432
0.986910
0.947645
1.057773
1.115113
1.178097
1.204417
1.154610
1.105715
1.119471
1.184461
1.250958
1.337739
1.345392
1.358723
1.340030
1.263458
1.228369
1.135039
0.994883
0.931448
0.868111
0.855520
0.852772
0.789840
0.701963
0.704820
0.680775
0.673236
0.698557
0.695698
0.753266
0.726830
1.054611
0.761617
0.748308
0.723619
0.749892
0.808686
0.899847
0.917201
1.054387
1.021283
0.946416
0.834849
0.707820
0.885931
0.980222
0.735315
0.916990
0.977124
0.975304
1.011148
1.011412
1.011177
1.021133
1.023364
1.047467
1.013287
0.993520
0.994110
1.042969
1.008380
0.999943
1.013721
0.969209
0.976905
0.995259
0.992016
0.952933
0.955221
0.914288
0.946298
0.950280
0.932569
0.908445
0.678274
0.698010
0.765403
0.794254
0.734028
0.704125
0.898592
0.764274
0.771952
0.926159
0.910728
0.932874
0.972020
0.989489
1.010775
0.977395
0.976036
0.998747
1.019213
1.035421
0.989097
1.034516
1.002998
1.028127
1.016747
0.999655
0.975994
0.934642
1.077107
1.043546
1.040409
1.063766
1.125074
1.112187
1.315697
1.303866
1.273152
1.222832
1.195511
1.153800
1.142262
1.138156
1.141408
1.147825
1.051211
1.052605
1.038889
1.042615
1.114570
1.200122
1.317362
1.323131
1.257330
1.241438
1.219441
1.224207
1.216217
1.213597
1.257517
1.288246
1.304765
1.286843
1.342417
1.383081
1.366715
1.345764
1.339527
1.328058
1.302906
1.273573
1.216759
1.175743
1.182298
0.942673
0.942922
0.945448
0.988813
1.029109
1.005677
1.056313
1.054138
1.055177
1.075005
1.133875
1.171306
1.205201
1.182763
1.166136
1.135734
1.173949
1.234161
1.216808
1.177864
1.182946
1.150028
1.117928
1.057410
1.039517
1.091545
1.151940
1.240601
1.270381
1.318851
1.387491
1.302678
1.042298
1.071155
0.916014
0.968854
0.977776
0.984044
0.992443
1.011919
1.015173
1.022597
1.015765
0.996258
1.010139
1.031244
1.017738
1.029704
1.084413
1.075817
1.058840
0.998704
1.071115
0.998227
1.067827
1.127296
1.169325
1.234541
1.160641
1.135197
1.253909
1.285030
1.302644
1.256940
1.220775
1.163434
1.120299
1.107905
1.057226
1.105073
1.187423
1.202470
1.162070
1.126762
1.157278
1.207305
1.315739
1.336201
1.319642
1.315740
1.272118
1.254594
1.165148
1.148371
0.704844
0.699919
0.676462
0.810495
0.802850
0.802128
0.873337
0.694450
0.781897
0.766601
0.783873
0.902247
0.950229
0.979906
0.918916
1.003205
1.018195
1.020976
1.013125
0.975898
0.998592
0.983944
1.012004
1.057376
1.021112
1.037245
1.012516
1.025821
0.991088
0.991955
0.973729
0.983091
0.978606
0.969171
0.938521
0.918095
0.946160
0.969264
1.352911
1.261991
1.271117
1.208087
1.190115
1.090559
1.072856
0.928499
1.074829
1.070600
0.884468
0.870257
0.852284
0.824598
0.774602
0.740536
0.723269
0.684658
0.678468
0.972056
0.994001
0.999229
1.038532
1.007484
1.031382
1.054637
1.038986
1.043814
1.068855
1.057882
1.092991
1.103352
1.134628
1.143234
1.164513
1.145985
1.185323
1.170342
1.185638
1.211412
1.198044
1.135984
1.111843
1.128196
1.089533
1.020823
1.233007
1.273453
1.305465
1.350699
1.389568
1.398765
1.188146
1.125546
0.949333
0.913060
0.929353
0.985314
0.940700
0.982636
0.991762
1.006026
1.062181
1.043040
1.048031
1.047800
1.054108
1.343997
1.275830
1.249955
1.174626
1.207252
1.153098
1.140270
1.069855
0.966036
0.911852
0.930407
0.898291
0.884129
0.817108
0.805119
0.762954
0.737883
0.693157
0.697775
0.732983
0.775807
0.719087
0.709505
1.284892
1.287950
1.217023
1.190730
1.192389
1.196152
1.237160
1.247871
1.260633
1.230739
1.264189
1.284927
1.305992
1.317893
1.385404
1.389857
1.369251
1.364477
1.348694
1.331125
1.292790
1.278777
1.309725
1.071315
1.097136
1.147761
1.197295
1.091716
1.093118
1.110624
1.153530
1.247630
1.229198
1.220056
1.258241
1.061299
1.043315
1.045965
1.060923
1.077495
0.993795
0.983074
0.984640
1.046366
1.048073
1.090648
1.071556
1.045169
1.058504
1.029269
0.999088
1.012656
0.986540
1.020334
1.032564
1.035461
0.987734
0.979271
0.955834
0.958426
0.965382
0.983315
0.993173
1.014972
0.992327
1.007047
1.026872
1.049659
0.986712
1.000847
0.964504
1.008470
1.051291
1.102014
1.102799
1.030501
1.066459
1.112867
1.147013
1.011088
1.042191
0.990087
1.024061
1.107960
1.081364
0.989944
1.013887
1.104847
1.083239
1.106540
1.105846
1.122206
1.164945
1.180232
1.175670
1.174974
1.187836
1.210333
1.175003
1.161194
1.120268
1.137637
1.101618
1.330428
1.233837
1.190470
1.158908
1.121782
1.097537
1.080945
1.107102
1.167530
1.193806
1.179097
1.168828
1.135269
1.193312
1.276626
0.938018
0.883599
0.851176
0.795290
0.732239
0.734426
0.913572
1.389944
1.380050
1.369093
1.351425
1.342483
1.289050
0.853158
0.753864
0.881284
0.939722
1.336889
1.372953
1.387545
1.389997
1.271700
1.196002
1.018631
0.915781
0.919458
0.959865
0.964755
0.944058
0.953075
0.986973
1.006562
1.036763
1.067454
1.082313
1.108347
1.106862
1.045881
1.068328
1.044133
1.085481
1.103226
1.110979
1.165979
1.105499
1.162185
1.183842
1.246013
1.244652
1.257567
1.185646
1.215115
1.226662
1.231619
1.235729
1.216667
1.259742
1.037993
1.117806
0.990185
1.030117
1.052778
1.061587
1.070639
0.999281
1.013864
1.013423
0.966783
0.968651
0.967055
0.988844
0.993195
1.018209
1.007301
1.001900
1.030955
1.063029
1.058880
1.078011
1.043463
1.066281
1.087307
1.074913
1.057052
1.074794
1.064718
1.045720
1.026320
1.005791
0.973958
0.954480
0.990441
0.956263
0.950364
1.040991
1.055599
1.007603
1.036046
1.038703
1.041629
1.061611
1.078219
1.066192
1.103142
1.099686
1.178747
1.122078
1.181525
1.187905
1.191952
1.210475
1.238286
1.185705
1.161600
1.118499
1.242830
1.184208
1.234601
1.256366
1.223918
1.196245
1.171514
1.169688
1.192904
1.234358
1.228711
1.210065
1.228029
1.271448
1.209009
1.193649
1.190270
1.230021
1.175851
1.191975
1.153758
1.142656
1.146232
1.152184
1.201934
1.208953
1.227305
1.243611
1.272152
1.288847
1.328236
1.351958
1.374153
1.220874
1.267327
1.226738
1.171805
1.126715
1.106418
1.097945
1.071562
1.355045
1.371368
1.384388
1.370926
1.300562
1.233065
1.072562
1.015756
0.947409
0.902417
0.920797
0.937740
0.962081
0.957164
0.963947
0.999195
1.034387
1.065763
1.093901
1.117096
1.116599
1.152999
1.043067
1.160319
1.195878
1.195081
1.127542
1.188170
1.237003
1.268116
1.249275
1.222824
1.380195
1.376299
1.371765
1.154535
1.183474
1.139910
1.174564
0.942469
1.017421
1.001814
1.027189
1.025398
1.064010
1.027384
1.049234
1.058339
1.068611
1.080742
1.065698
1.084694
1.093279
1.199695
1.216193
1.233654
1.261724
1.246518
1.249081
1.302929
1.277634
1.213301
1.199555
1.168179
1.131004
1.100734
1.073366
1.078133
1.068017
1.050858
1.041851
1.053351
1.080403
1.102351
1.154616
1.379012
1.367532
1.356356
1.292767
1.218886
1.107718
1.059527
1.027555
0.936238
0.946623
0.936889
0.926909
0.951809
0.951738
0.976621
0.966397
1.016559
1.056482
1.108856
1.130304
1.141481
1.155025
1.149868
1.119510
1.105712
1.068846
1.048615
1.169666
1.144341
1.174071
1.184726
1.224179
1.192346
1.253354
1.258023
1.335143
1.348979
1.169614
1.167795
1.141959
1.148750
1.162048
1.187012
1.205389
1.194911
1.169575
1.180443
1.369805
1.147389
1.140895
1.203418
1.214302
1.222774
1.269636
1.250213
1.225830
1.280929
1.207803
1.216846
1.176948
1.141781
1.125942
1.120499
1.110601
1.048764
1.043835
1.083062
1.126914
1.131595
1.032890
1.117440
1.088277
1.106686
1.096019
1.093476
1.081655
1.099081
1.094878
1.067314
1.032510
1.026958
1.011971
0.983804
0.985999
1.069227
1.087294
1.066775
1.072102
1.076231
1.183951
1.163982
1.191909
1.230641
1.197801
1.352738
1.324443
1.272184
1.207288
1.136548
1.079047
0.978906
0.947828
0.944030
0.950852
0.941412
0.959731
0.984104
0.987133
0.993511
1.071890
1.101091
1.150463
1.181693
1.073478
1.055982
1.068766
1.092121
1.125878
1.158089
1.139930
1.151933
1.161703
1.168911
1.158007
1.140594
1.160465
1.332125
1.219684
1.205699
1.231456
1.225786
1.270009
1.220785
1.134874
1.142725
1.149182
1.073330
1.083668
1.131218
1.131784
1.115571
1.077744
1.142012
1.124428
1.101577
1.102007
1.049017
1.084394
1.064875
1.041850
1.038702
1.024427
0.984923
1.005173
1.016836
1.017149
1.048012
1.044802
1.077811
1.058166
1.043818
1.075439
1.160384
1.138546
1.051555
1.068396
1.058988
1.069510
1.124139
1.129582
1.257609
1.135910
1.194309
1.147308
1.148664
1.137055
1.111614
1.137918
1.138631
1.168678
1.180530
1.221768
1.236609
1.304229
1.262448
1.209266
1.054645
1.008390
0.975026
0.967349
0.995615
1.155824
1.170868
1.115273
1.143041
1.096789
1.172348
1.107809
1.138936
1.165934
1.159578
1.111989
1.150566
1.119882
1.097964
1.082823
1.090646
1.091569
1.131723
1.166181
1.197573
1.230996
1.273144
1.072250
1.060674
1.099294
1.102034
1.133395
1.124495
1.126784
1.101661
1.137374
1.115477
1.058433
1.049970
1.034743
1.062983
1.072520
1.123152
1.170625
1.218451
1.089740
1.056372
1.034459
1.251655
1.009199
1.031422
1.046289
0.978583
0.972133
1.044496
1.019392
1.084972
1.100894
1.121158
1.155394
1.096488
1.120190
1.126462
1.061960
1.157220
1.078643
1.012659
1.016823
1.020890
1.006263
1.009285
1.035200
1.017492
1.054252
1.055027
1.084972
1.046791
1.070835
1.070981
1.088020
1.092562
1.072079
1.098587
1.138652
1.084131
1.095959
1.063958
1.006387
1.053338
0.994132
0.988430
1.021651
1.021609
1.037665
1.035279
1.079299
1.107631
1.110662
1.133186
0.990244
1.056126
1.297443
1.268528
1.296994
1.290598
1.288336
1.263476
1.231767
1.256273
1.237936
1.262683
0.683952
0.704661
0.676732
1.031890
0.991971
0.970646
0.987978
1.255454
1.211292
1.301366
0.751481
0.769799
0.815343
0.778804
0.867638
0.871711
1.285122
1.312873
1.293789
1.267821
1.057258
1.094091
1.018321
1.156696
1.116814
1.160328
1.142845
1.111951
1.132865
1.062861
1.072493
1.107889
1.153425
1.203099
1.181831
1.167492
1.208786
1.199529
1.157233
1.085011
1.084242
1.018026
1.083134
1.110354
1.139744
1.278217
1.010962
1.055322
1.133694
1.108035
1.063023
0.952839
0.918771
0.986042
0.964706
0.990623
0.854038
1.190488
1.120996
1.086385
1.241644
1.180342
1.162609
0.989397
1.174362
0.948725
0.967348
0.787858
1.007304
1.055645
1.161972
1.159878
0.926188
0.847915
0.988050
1.221725
1.372772
1.263863
1.124129
1.171776
0.941801
0.695019
1.139453
1.077714
1.027809
0.969743
0.931857
0.911508
0.881850
0.906543
0.883202
0.912272
0.869968
0.887397
0.904995
0.940566
0.961342
1.019425
1.062025
1.016370
1.090418
1.134794
0.827318
1.166179
1.250394
0.958992
0.885035
0.926241
1.035026
1.043867
0.948975
1.086645
1.084979
1.073118
0.876680
0.789571
0.779643
1.013519
1.038823
1.013671
1.133427
1.054325
1.030778
0.956781
1.011409
0.921862
0.891989
0.820623
1.291269
1.204930
1.284097
1.080965
0.964343
0.949811
0.807800
0.971074
1.063465
0.905870
0.901068
0.926547
0.845683
1.021777
1.134009
1.083092
0.948156
0.873229
0.995864
0.947344
1.031748
1.124958
1.220569
1.302337
1.215054
0.948882
1.052106
0.994279
1.107175
1.019310
1.111183
1.060251
1.126035
1.119275
1.119903
1.161191
1.021012
1.164909
1.086887
1.089166
1.112185
1.144622
1.032275
1.153671
1.090962
1.126628
1.010987
1.082244
0.985285
1.075134
0.970646
1.068139
0.983415
1.070648
1.042513
1.086577
1.132826
1.152835
1.042505
1.129475
1.099704
1.080296
1.171129
1.114090
1.016608
1.136619
1.023906
1.090074
0.987315
1.108001
0.990618
1.104599
1.111495
1.044599
1.060102
1.014342
0.936941
0.835071
0.825035
0.776478
0.752201
0.753395
0.771409
0.789054
0.835652
0.857019
1.387378
1.302242
1.232159
1.089026
1.043792
0.968752
0.915845
0.975023
1.205259
1.146510
1.154472
1.226473
1.120132
0.913935
1.093697
0.887311
0.931636
0.872887
0.991177
1.099355
1.126727
0.895484
0.870929
0.998042
1.190644
1.353134
0.996264
0.735617
0.686563
0.874129
0.718448
1.279721
1.036352
0.893916
0.816152
0.844504
1.266511
1.227435
1.113161
1.076324
1.122879
0.892147
1.016861
1.005811
0.963053
0.966995
0.970914
0.938034
0.992113
0.993071
0.937262
0.908260
1.084500
1.222802
1.211831
1.116986
1.097637
1.030112
0.985893
0.839676
0.971956
0.929185
0.970420
0.999855
1.001377
1.176505
1.057565
0.933730
1.021025
0.960902
1.064380
0.986333
1.027659
1.130215
1.258732
1.217184
0.896004
0.928315
1.344870
1.351873
1.143535
0.754281
0.909837
0.957586
1.032070
1.075768
1.095734
1.110881
1.108287
1.089036
1.103850
1.040943
1.083945
1.094907
1.094760
1.086548
1.143638
1.126327
1.127489
1.085423
1.113020
1.100990
1.058942
1.020394
0.998632
0.987885
0.967724
0.966236
0.982479
1.006464
1.060257
1.050816
1.095332
1.180103
1.061276
1.113239
1.106968
1.060080
1.140644
1.059803
1.071549
1.094905
1.116689
1.134050
1.193271
1.079572
1.098696
1.063773
0.981640
0.975845
0.943529
0.911423
0.922689
0.887891
0.931434
0.942677
0.895781
0.900656
0.930033
0.962240
0.981174
1.027397
1.090866
1.077518
1.132981
1.086352
1.161053
1.158773
1.139192
1.086054
1.006883
0.934231
0.832257
0.765657
0.779246
0.784936
0.804065
0.854492
0.968850
1.058180
0.991427
1.187116
0.932373
1.030913
1.019830
1.101823
1.267829
1.271049
1.355192
1.346915
1.270677
1.130425
0.886670
0.868020
0.748663
0.685842
0.694616
0.674077
0.903453
1.357430
1.297283
1.100414
0.978116
0.959790
0.930073
1.104349
0.895467
0.900584
1.008182
1.348057
1.241738
1.261914
1.090085
0.862837
1.034275
1.045469
0.952258
1.025630
0.957588
1.129599
1.261527
1.209423
1.246968
1.163743
0.997350
1.011842
0.955194
0.969437
0.972205
0.947785
1.068507
1.205599
1.180231
1.144879
1.085028
0.974594
1.064224
0.975643
0.990949
1.063988
1.147160
1.251306
1.238741
1.211266
1.212926
1.154017
1.133345
1.127081
1.071407
1.014949
0.989218
0.952419
0.931218
1.388032
1.301981
1.288883
1.205898
1.014993
1.042028
1.033932
1.128770
1.310417
1.191357
1.195468
1.182757
1.199768
1.033205
0.989808
0.971087
0.980518
0.950627
0.973630
0.922527
0.985552
1.046057
1.030620
1.055902
1.043606
1.124322
1.144173
1.019111
1.122163
1.129196
1.165644
1.033837
1.093791
1.116024
1.133294
1.129841
1.123676
1.122819
1.098160
1.095183
1.090799
1.110681
1.093261
1.137790
1.101718
1.093941
1.069573
1.114275
1.065836
1.049887
0.994885
0.963396
0.936282
0.915411
0.911029
0.933836
0.983728
1.034443
1.062238
1.093751
1.086242
1.097374
1.126668
1.140068
1.118956
1.124487
1.081270
1.101670
1.144520
1.080847
1.070784
1.076483
1.036155
1.181599
1.203067
1.167039
1.025027
1.073287
1.157817
1.229152
1.292196
1.266311
1.261615
1.257083
1.164180
1.071723
0.922221
0.794199
0.870307
0.695003
0.685504
0.665386
0.754003
0.968311
1.336127
1.280502
1.157753
1.084399
1.001830
0.981197
0.977547
1.092520
1.221321
1.153966
1.247425
1.380721
1.230148
1.320482
1.269709
1.282844
1.170418
1.217310
1.111754
1.033638
1.020797
1.134596
1.009112
1.123334
1.257117
1.244936
1.215806
1.089549
1.033821
1.029384
0.967436
1.008932
1.000278
1.080408
1.179846
1.256079
1.236714
1.179404
1.053795
0.953305
0.967960
1.025313
1.067610
1.156690
1.216393
1.177941
1.195220
1.162929
1.151250
1.116352
1.104680
1.088796
1.061396
1.020021
0.982981
0.970399
1.022389
0.993798
1.005081
0.995298
1.014316
1.024643
1.032341
1.118927
1.035489
1.096092
1.084105
1.071267
1.103543
1.085665
1.075539
1.220723
1.200892
1.276801
1.266803
1.124445
1.145342
1.164674
1.213983
1.287703
1.260075
1.216248
1.187665
1.209609
1.089856
1.104657
1.131328
1.103655
1.094068
1.087653
1.096547
1.067077
1.061559
1.077796
1.098546
1.066680
1.108208
1.079182
1.058402
1.099158
1.071459
1.054107
0.990273
0.929016
0.895343
0.869970
0.864074
0.906446
0.961165
1.011259
1.050939
1.089078
1.113213
1.128115
1.057590
1.137342
1.111511
1.117950
1.072245
1.085053
1.094563
1.078951
1.032701
1.034505
1.238767
1.235684
1.103345
1.182478
1.216942
1.233069
1.245899
1.257446
1.183188
1.193298
1.148043
1.069752
0.960702
0.898825
0.838404
0.746615
0.668815
0.660343
0.699864
0.700284
1.041042
1.292757
1.302354
1.243381
1.157081
1.077032
1.012105
1.114593
1.017823
0.871791
0.694163
0.673850
0.683711
0.688742
0.907088
1.060548
1.365840
1.248610
1.371165
1.245113
1.167523
1.070141
1.009772
1.036071
1.096619
1.206575
1.263032
1.288368
1.382954
1.396943
1.385920
1.341366
1.361084
1.324593
1.256446
1.255953
1.137214
1.084411
1.121724
1.093862
1.149599
1.217802
1.243143
1.183807
1.116265
1.072399
1.052743
0.991034
1.011171
1.048697
1.090133
1.139500
1.236018
1.267637
1.234870
1.221386
1.129141
1.083345
0.998968
0.983048
0.962131
0.973483
1.006700
1.057131
1.138906
1.145295
1.179677
1.163532
1.175512
1.127706
1.118515
1.102954
1.087731
1.078633
1.045138
1.000172
1.013853
1.023091
1.048729
1.023893
1.043629
1.106695
1.055902
1.093031
1.043347
1.098466
1.107053
1.149675
1.160980
1.205858
1.237352
1.238171
1.220365
1.188061
1.199704
1.180921
1.170569
1.178821
1.261532
1.281116
1.264606
1.116886
1.127201
1.143829
1.122275
1.107285
1.086684
1.104144
1.073789
1.022988
1.080465
1.049241
1.105318
1.053616
1.077161
1.086095
1.063733
1.083851
1.076463
0.993193
0.924631
0.856747
0.847500
0.862457
0.877662
0.999258
1.035373
1.044170
1.049603
1.089412
1.094075
1.136142
1.125769
1.106478
1.098711
1.095752
1.128168
1.094663
1.093620
1.041209
1.240886
1.228422
1.142714
1.130775
1.137895
1.189500
1.191150
1.213540
1.216689
1.149819
1.110133
1.069731
1.031933
1.073454
1.077925
1.039762
1.091526
1.229314
1.253100
1.275537
1.245357
1.206052
1.157128
1.132580
1.081520
1.003087
0.978183
0.957458
0.982283
1.023295
1.070305
1.180257
1.091823
0.885710
0.725103
0.671447
0.709106
0.725265
0.967760
0.932139
1.097207
1.239707
1.299532
1.264431
1.188860
1.081314
1.066541
1.097776
1.068051
1.130844
1.171739
1.217228
1.194020
1.221706
1.328881
1.378461
1.388622
0.918166
1.012300
1.093299
1.104607
1.138113
1.153034
1.114779
1.149453
1.128530
1.153408
1.039406
1.031397
1.063311
1.067516
1.076383
1.077870
1.084059
1.103732
1.098979
1.112864
1.137802
1.123482
1.151195
1.172592
1.196841
1.200895
1.207838
1.216800
1.216739
1.205203
1.392676
1.346889
1.301699
1.290188
1.216526
1.127541
1.105807
1.098594
1.077642
1.073038
1.093694
1.046972
1.069957
1.091917
1.092668
1.075879
1.091835
1.059295
1.081816
1.105400
1.089182
0.998939
0.842096
0.843530
0.855644
0.846793
0.895783
1.030111
1.057317
1.051506
1.047457
1.094387
1.076730
1.098386
1.129520
1.139934
1.059065
1.077574
1.133995
1.093984
1.046409
1.222249
1.219091
1.183135
1.195976
1.077368
1.090923
1.056930
1.076495
1.064779
1.104160
1.082712
1.084628
1.102326
1.107677
1.125272
1.128727
1.150150
1.154624
1.190360
1.178836
1.186227
1.227381
1.267615
1.274819
1.072194
1.060483
1.091124
1.123919
1.150282
1.215972
1.225728
1.226281
1.213143
1.181322
1.149675
1.129579
1.108937
1.070744
1.029500
0.983791
0.983299
1.009401
1.020119
1.211490
1.167938
1.166879
1.163211
1.194803
1.381267
1.349451
1.322955
1.055103
1.030072
0.983300
0.986674
0.983166
0.902234
0.877302
0.862783
0.701618
0.704426
0.693248
0.839719
0.791321
1.084945
1.092956
1.231672
1.230070
1.160819
1.124662
1.089168
1.121729
1.085602
1.119340
1.159635
1.170010
1.204812
1.204058
1.232013
1.309848
1.305456
1.172199
1.120032
1.139234
1.098494
1.081625
1.067058
1.074281
1.041318
1.055427
1.062709
1.092892
1.071925
1.073781
1.057412
1.095097
1.089828
1.133536
1.027463
0.809291
0.812849
0.807489
0.818158
0.966290
1.042618
1.086910
1.078822
1.050276
1.085223
1.108649
1.068165
1.122056
1.123616
1.073065
1.087248
1.119624
1.100229
1.021670
1.071316
1.084463
1.091152
1.128289
1.177193
1.192678
1.177329
1.136923
1.120088
1.142170
1.147330
1.180998
1.200645
1.204843
1.189670
1.163932
1.138778
1.117282
1.117483
1.109141
1.088669
1.061810
1.022334
0.990936
0.979605
0.997699
1.001997
1.050672
1.049103
1.075982
1.081186
1.151661
1.151995
1.029422
0.995116
0.975083
0.995430
0.910515
0.897282
0.928083
0.711409
0.730226
0.711066
0.693877
0.971765
0.842064
1.108664
0.850228
0.686075
0.706256
0.697675
0.717002
1.119470
1.158167
1.200067
1.212892
1.139515
1.085772
1.111543
1.064757
1.066262
1.118285
1.168663
1.071915
1.065788
1.104655
1.095093
1.067176
1.080791
1.091013
1.135050
1.053711
1.072021
1.066256
1.123137
1.071116
1.126835
1.055519
0.770827
0.777444
0.778412
0.771105
1.008747
1.055374
1.111160
1.041036
1.066801
1.045493
1.098360
1.089109
1.141006
1.099062
1.086097
1.077726
1.106475
1.074537
1.086154
1.091318
1.109806
1.123005
1.133469
1.157209
1.139118
1.120052
1.104691
1.120479
1.137852
1.123569
1.113402
1.154861
1.174559
1.200574
1.198536
1.170974
1.149224
1.176115
1.177705
1.169876
1.151036
1.135330
1.117537
1.104888
1.098229
1.077156
1.102975
1.093960
1.083353
1.056207
1.032006
1.003438
1.011393
1.010173
1.025666
1.050923
1.053719
1.054783
1.185958
1.173301
1.069881
1.069210
1.072762
1.067431
1.081872
1.114294
1.132188
1.086373
1.086484
1.071331
1.127945
1.135310
1.084471
0.994431
0.787795
0.736121
0.744127
0.734950
0.987514
1.000625
1.098897
1.087238
1.055219
1.039806
1.066287
1.069707
1.105614
1.129142
1.109719
1.085615
1.089744
1.110108
1.083710
1.067569
1.099614
1.070873
1.068854
1.057018
1.099946
1.093735
1.130042
1.132994
1.124939
1.119516
1.117756
1.080409
1.099449
1.124497
1.098953
1.073270
1.079046
1.096040
1.061436
1.046257
1.006867
1.014311
1.009684
1.012597
1.019188
1.079280
1.097656
1.094203
1.101255
1.091154
1.051992
1.081541
1.073971
1.083277
1.048567
1.022339
0.997118
0.988379
0.994480
1.001362
1.002638
1.151268
1.003842
0.711916
0.735993
0.715561
0.707248
0.715203
0.910461
1.243717
1.120417
1.169959
1.161641
1.135518
1.106224
1.114904
1.141101
1.093158
1.083282
1.091815
1.017166
1.065697
1.055948
1.073839
1.087724
1.122766
1.074141
1.072737
1.091370
1.127755
1.072431
1.113613
0.943715
0.784322
0.729730
0.726780
0.768145
0.866797
1.023104
0.997507
1.060885
1.085479
1.041068
1.045475
1.076070
1.074414
1.088482
1.082103
1.102002
1.103064
1.115626
1.099625
1.023953
1.059009
1.073265
1.083963
1.085381
1.088479
1.057513
1.060081
1.105717
1.112778
1.100962
1.071677
1.062108
0.736943
0.699301
0.692709
0.715647
0.838238
1.102003
1.113287
0.948655
1.042795
1.015415
1.019958
1.072225
1.065566
1.114537
1.084868
1.073907
1.066953
1.109098
1.057822
1.041409
1.045828
1.097878
1.123113
1.033988
1.015285
1.010527
1.015679
1.013489
1.067239
1.187736
1.282904
0.692190
0.765651
1.122303
1.098882
1.072532
1.072117
1.072551
1.092250
1.077143
1.074246
1.042852
1.052761
1.014961
0.724688
0.709990
1.045031
1.149684
0.770846
1.058600
1.074797
1.029328
1.002591
1.028841
1.046781
1.066852
1.087286
0.903802
1.088647
1.059748
0.984710
1.019617
1.203199
1.175774
1.150242
1.103418
1.133031
1.133549
1.104058
1.084518
1.093081
1.091789
1.134672
1.123835
1.158701
1.134668
1.107730
1.103987
1.120015
1.129116
1.114168
1.099981
1.111056
1.083651
1.106409
1.089852
1.111053
1.112537
1.038994
1.023567
1.051913
1.023693
1.032250
0.997410
1.086934
1.024918
1.036870
1.098346
1.054957
1.065142
1.021490
1.050326
0.987436
0.964491
0.936960
1.034145
0.963481
0.969543
0.978874
0.861954
0.877669
1.191239
1.187050
1.261581
1.237425
1.038231
1.084832
1.173453
1.111075
1.254350
1.117554
1.077566
1.069934
1.102380
1.096215
1.068373
1.337086
1.255986
1.130326
1.090572
SCALARS V22_SP1(MPa) float 1
LOOKUP_TABLE default
0.850337
0.730510
0.930353
1.173737
1.023345
0.983445
0.700984
0.958756
1.178264
1.370654
1.117695
1.121679
0.905175
0.849562
0.909830
0.921547
0.831844
0.739449
1.136732
0.826903
0.972140
1.030217
1.114302
1.058744
0.899505
0.796124
0.882561
0.832044
1.132869
1.184111
1.284863
1.409242
1.286557
0.923287
0.807064
0.939229
1.160727
1.437871
1.402885
1.520364
1.394694
1.352287
1.465087
1.463444
1.203061
1.198630
0.915012
1.399671
1.344585
1.368379
1.073234
1.135561
0.789751
1.143092
0.926792
0.763568
0.728138
0.887121
1.069217
0.727021
1.183642
1.157556
0.922689
1.165018
1.034603
1.128137
0.752788
1.172215
0.735186
0.805530
0.779157
0.957877
0.778716
0.891484
1.158305
1.096024
0.836312
0.981826
1.254873
1.483684
1.323592
1.177924
0.799259
1.057213
1.036336
1.312024
1.083672
1.009391
1.177093
1.142969
1.031901
0.774463
0.948564
0.881201
0.837347
0.801254
0.945333
0.953876
0.988089
0.976842
0.775512
0.952999
0.985200
0.934911
0.854028
0.753815
1.053262
1.132513
1.158049
1.103750
1.071152
1.028804
0.898896
1.004134
1.001185
1.087962
1.033520
0.910759
0.853748
1.111118
1.159529
1.020687
1.119692
1.563676
1.527098
1.481740
1.537927
1.519891
1.399737
1.140819
0.922131
0.935735
0.981237
0.960497
0.834544
1.200503
0.953275
1.435568
1.450499
1.425586
1.285407
1.087008
0.876458
1.043955
1.058283
1.029720
0.937432
0.953724
0.826405
1.078848
1.135798
1.216400
1.105213
1.429674
1.311821
0.972037
0.863699
0.732241
0.635594
1.063573
0.817895
1.021898
1.159269
1.204795
1.319241
1.427662
1.403572
1.386143
1.006055
0.815023
0.763210
0.689580
0.773673
0.984945
1.146428
1.250177
1.403392
1.452764
1.219535
1.000591
1.041545
1.071539
1.075822
1.114314
1.036012
0.947335
1.275802
1.359846
0.938312
0.840985
0.935542
1.152171
1.433659
1.270619
1.282468
1.353788
1.322359
1.296533
1.371534
1.393769
1.172040
1.259570
1.455961
1.277926
1.287707
1.131464
1.061598
0.894956
0.746677
0.903872
0.751137
0.804035
1.052816
1.182645
1.402082
0.899302
1.262230
1.069741
0.973482
0.606215
0.681534
0.920270
0.715717
0.887057
0.825296
1.115242
0.750648
0.979548
1.130600
1.069391
1.447758
1.519917
1.373916
1.225112
1.397416
0.843998
0.949353
1.095811
1.086070
1.116533
0.868116
1.094184
1.131345
1.154462
0.983631
0.946374
0.821520
0.733853
0.757572
0.730852
0.945774
1.310859
0.873944
1.142225
0.766553
1.182316
1.307334
1.366570
1.224264
1.180548
1.102269
1.126606
1.109644
1.061581
1.063059
1.010239
0.981643
0.962711
0.981390
0.889359
0.823925
0.907446
0.985932
1.110550
1.230525
1.357914
1.611495
1.540152
1.513183
1.519274
1.457649
1.360975
1.260908
1.045702
0.739287
0.786879
0.818877
0.886265
1.272599
1.104305
1.534903
1.609797
1.534453
1.327960
1.096559
0.879287
0.958709
1.087653
1.028335
1.000275
0.880726
0.715394
0.983608
1.075733
1.012216
1.398551
1.575379
1.407141
0.972279
0.682979
0.698171
1.066119
0.986824
1.281103
1.138007
1.257458
1.349529
1.433535
1.468650
1.495138
1.103495
0.890520
0.904392
0.777342
0.862009
1.113346
1.254895
1.339566
1.476875
1.508378
1.219253
1.252018
1.348530
1.289360
1.260566
1.260394
1.106141
1.370223
1.212843
1.358144
1.225948
1.070756
1.160952
1.280860
1.507537
1.205170
1.282216
1.257138
1.364884
1.451420
1.402045
0.917565
0.949067
1.045100
1.125281
1.061772
1.097362
1.036502
0.741111
0.873760
1.226653
1.206511
1.322052
1.299525
0.773564
1.099471
1.370123
1.304352
1.437999
0.839386
1.038035
1.017076
0.995144
0.964812
0.909735
0.997626
0.890264
1.272321
1.414340
1.512091
1.419048
1.148174
1.012629
0.805997
0.913910
0.770081
0.890312
1.015283
1.311749
1.381786
1.239578
0.764866
0.665201
0.645112
0.857818
0.923556
0.925041
0.844101
1.008666
1.093101
0.966429
1.338712
1.391608
1.400581
1.292455
1.209314
1.158620
1.135218
1.113743
1.123033
1.090298
1.031415
0.960107
0.921974
0.868180
0.893801
0.966429
1.045189
1.445251
1.555813
1.659056
1.537342
1.568042
1.513233
1.468161
1.468639
1.413398
1.326253
1.138011
0.851524
0.838767
0.861194
0.917595
1.382985
1.393557
1.657997
1.595984
1.565553
1.467934
1.227418
0.986766
1.152941
1.223548
1.128668
1.165138
1.128375
0.848091
1.270772
1.313859
1.342733
1.611658
1.598118
1.450327
1.354155
1.070312
1.175095
1.085131
1.016191
0.918115
1.011986
1.124678
1.159561
0.964859
1.186951
1.011718
0.863144
0.826371
0.943275
0.996625
1.329791
1.185282
1.384272
1.347379
1.227989
1.077342
1.000767
0.714618
1.315314
1.272081
1.257987
0.631335
0.705879
1.278929
1.556300
1.476208
1.421055
1.569272
1.578761
1.576453
1.557666
1.546550
1.499758
1.510502
1.524571
1.518808
1.522103
1.516230
1.514462
1.503960
1.498060
1.481454
1.441951
1.451030
1.450858
1.529388
1.485634
1.524265
1.565091
1.562885
1.529740
1.544464
1.556700
1.546146
1.565982
1.565514
1.580024
1.572328
1.547779
1.571220
1.568272
1.556959
1.559363
1.567598
1.509205
1.502584
1.584595
1.501243
1.532759
1.565799
1.450249
1.500848
1.451067
1.515088
1.504746
1.417372
1.491194
1.463106
1.354754
1.464340
1.503201
1.453485
1.497392
1.584827
1.519788
1.546504
1.501896
1.529324
1.498042
1.482317
1.482512
1.556968
1.517570
1.561796
1.545895
1.575435
1.528220
1.536915
1.539537
1.510493
1.512416
1.554444
1.544498
1.564670
1.560094
1.560833
1.539357
1.533624
1.601801
1.541260
1.554778
1.596155
1.494756
1.482292
1.456066
1.507407
1.526059
1.486114
1.525945
1.513530
1.510264
1.548391
1.537796
1.556561
1.561838
1.591115
1.598072
1.598533
1.604985
1.588308
1.608350
1.602997
1.604053
1.603325
1.609446
1.604904
1.584709
1.602436
1.566463
1.566910
1.581139
1.588701
1.544108
1.569175
1.555307
1.556047
1.573403
1.565009
1.576455
1.540195
1.540970
1.569616
1.591258
1.471011
1.561632
1.519161
1.479116
1.493979
1.471211
1.407783
1.515947
1.527630
1.322828
1.104886
1.357432
1.514020
1.467271
1.459057
1.482873
1.498686
1.497433
1.508944
1.511931
1.455638
0.970852
1.494156
1.434748
1.456896
1.420690
1.335191
1.196551
1.067734
1.093821
1.255588
1.235803
1.066575
0.920154
1.059388
1.413034
0.797535
0.804068
0.953025
1.108879
1.053674
0.998351
1.038783
1.047035
0.995121
1.035638
0.970977
1.116842
0.854062
0.727963
1.519558
1.539053
1.565705
1.575370
1.582980
1.589540
1.596036
1.596608
1.590983
1.582160
1.573403
1.556653
1.546879
1.528639
1.521245
1.514925
1.321118
1.509540
1.482487
1.399128
1.310059
1.198464
1.137216
1.518451
1.399402
1.520882
1.298030
1.227399
1.533086
1.023136
1.078758
1.576933
1.494084
1.294526
1.165508
1.512245
1.522614
1.565710
1.551486
1.548934
1.550334
1.580750
1.562471
1.595242
1.584750
1.590933
1.599850
1.579265
1.572852
1.607266
1.595309
1.557573
1.578286
1.550433
1.549680
1.550340
1.548595
1.508110
1.563137
1.483355
1.422887
1.500025
1.509881
1.473453
1.444658
1.483011
1.443745
1.430727
1.385397
1.448183
1.478875
1.497700
1.471184
1.568592
1.543537
1.492764
1.525996
1.543182
1.487112
1.512105
1.511471
1.565255
1.545230
1.509837
1.526045
1.544430
1.546746
1.537340
1.551610
1.555726
1.580223
1.544448
1.556388
1.563913
1.546449
1.534643
1.538455
1.558801
1.532303
1.515302
1.570362
1.482532
1.513302
1.472853
1.443054
1.467788
1.502857
1.500992
1.553813
1.498723
1.568150
1.578182
1.572168
1.565328
1.572774
1.551212
1.602025
1.605241
1.581629
1.597354
1.585253
1.583482
1.589966
1.581477
1.609366
1.586185
1.583609
1.607781
1.562617
1.565049
1.585671
1.578008
1.574005
1.567075
1.551374
1.532738
1.575572
1.563622
1.546281
1.572299
1.562032
1.559010
1.528484
1.488512
1.574769
1.527518
1.452893
1.517362
1.453561
1.523221
1.461860
0.814675
1.152192
1.034154
1.338914
1.502944
1.536918
1.513315
1.543330
1.539617
1.571749
1.586975
1.529429
1.463301
1.301180
1.240677
1.200360
1.145874
1.266513
1.478149
1.338122
1.093506
0.927751
1.317087
1.552262
1.533733
1.505743
1.436451
1.348854
1.260747
1.414644
1.424465
1.399680
1.455841
1.630379
1.606073
1.084000
1.214711
1.094970
0.810737
0.763736
0.712388
0.890733
0.805697
0.931600
1.120249
1.184033
1.355538
1.375070
1.392420
1.537518
1.528999
1.533264
1.556549
1.547989
1.583944
1.577695
1.589362
1.604937
1.605621
1.605821
1.611758
1.599803
1.602109
1.623112
1.608703
1.589373
1.575199
1.555853
1.555005
1.562994
1.581676
1.543836
1.581402
1.516922
1.451388
1.524392
1.544131
1.515977
1.485709
1.476707
1.471466
1.421959
1.502160
1.461683
1.467935
1.527139
1.515041
1.553684
1.555050
1.509654
1.563506
1.483117
1.534390
1.538302
1.546421
1.545673
1.573891
1.527099
1.584108
1.554375
1.575186
1.570458
1.561943
1.553356
1.582001
1.556862
1.575215
1.573230
1.573434
1.568568
1.558549
1.584821
1.587499
1.585085
1.544577
1.534352
1.501328
1.513502
1.427498
1.464921
1.500739
1.503153
1.572112
1.513567
1.567726
1.601520
1.568243
1.582080
1.588863
1.595312
1.635814
1.599482
1.607077
1.604154
1.614266
1.597921
1.594980
1.596996
1.618771
1.612231
1.604954
1.607761
1.598653
1.575159
1.593722
1.617634
1.551468
1.592237
1.582902
1.521841
1.596910
1.564036
1.539165
1.569743
1.537880
1.503702
1.545298
1.485170
1.546937
1.476334
1.440462
1.427232
1.459847
1.490756
1.366722
0.885745
1.192377
1.303915
1.227907
1.262389
1.519114
1.535461
1.520757
1.560490
1.580744
1.542181
1.546394
1.376330
1.334887
1.267169
1.446863
1.296247
1.300497
1.293743
1.085343
1.614455
1.614115
1.611037
1.605246
1.608458
1.606169
1.602436
1.597047
1.591844
1.581661
1.571846
1.565179
1.549969
1.530761
1.464791
1.201061
1.379802
1.534749
1.374189
1.197612
1.253400
1.245964
1.098185
0.821730
0.710042
0.871892
1.305120
0.911866
1.449328
1.459912
1.421244
1.502544
1.542507
1.581463
1.670538
1.370409
1.012734
1.012426
0.848768
0.960068
1.249525
1.390275
1.477768
1.559388
1.616480
1.413197
1.432482
1.437025
1.444797
1.407032
1.261656
1.363928
1.483824
1.603781
1.476523
1.352899
1.215405
1.348871
1.506856
1.565367
1.619399
1.625737
1.230214
1.196560
1.142665
1.220568
1.371640
1.336564
1.312914
0.970823
0.961789
0.909066
1.025102
0.903952
1.285173
1.238965
1.041552
0.930091
0.962279
1.024880
1.010390
0.897967
1.012174
1.075116
1.331524
1.216933
1.150461
1.057581
1.222268
1.083264
1.028440
1.019224
0.787343
1.139175
1.482651
1.426723
1.551912
1.533087
1.554833
1.489401
1.329913
0.952985
0.778578
0.996101
1.646802
1.423919
1.575781
1.399068
1.082232
0.918695
1.109139
1.100319
1.184258
1.274776
1.295449
1.417245
1.395933
1.498242
1.585857
1.621129
1.625334
1.569108
1.331708
0.703794
0.935702
0.934391
0.895093
0.886861
1.156171
1.135439
0.829161
1.312098
1.342226
1.433385
1.454705
1.374308
1.306366
1.231686
1.194858
1.150671
1.155624
1.120320
1.036579
1.017518
0.972160
0.940077
0.986946
1.088188
1.220679
1.482325
1.581897
1.639974
1.615451
1.578868
1.578181
1.541068
1.503788
1.429632
1.332675
1.208958
0.977429
0.849646
0.886187
1.024976
1.337508
1.464604
1.576006
1.635422
1.587360
1.503963
1.326764
0.932832
1.222131
1.219216
1.320777
1.217705
1.164784
0.954875
1.181739
1.307888
1.340038
1.499599
1.535412
1.370828
1.393446
1.404404
1.475166
1.476943
1.522229
0.766017
1.426640
1.258725
1.187966
1.192655
1.245618
1.129260
1.174242
0.948127
0.904430
1.171301
1.121131
1.203891
1.445261
1.475269
1.560730
1.595471
1.628344
1.629969
1.586394
1.284971
1.189569
1.024909
1.113893
1.403168
1.467324
1.534905
1.578052
1.560679
1.484619
1.504912
1.495309
1.519866
1.496809
1.519564
1.568899
1.607867
1.198225
1.326068
1.489891
1.566529
1.621731
1.568728
1.599615
1.456246
1.215267
1.163284
1.111715
1.342126
1.388632
1.380803
0.837070
0.871015
0.985144
1.239452
1.103190
1.064069
1.104716
1.028069
1.105729
0.959999
1.375762
1.484060
1.353393
1.192664
1.502759
1.442529
1.107947
1.205506
1.063014
1.016597
0.936679
1.028951
1.322145
1.418274
1.435424
1.496006
1.504233
1.531864
1.517411
1.497239
1.388820
1.133454
0.976767
1.228402
1.629625
1.560041
1.559525
1.543519
1.530336
1.503588
1.273079
1.076867
1.002078
1.140402
1.174418
1.261608
1.326165
1.359162
1.403705
1.466090
1.478127
1.548319
1.592121
1.609212
1.486599
1.552887
1.588172
1.678917
1.118056
1.108218
1.181134
1.016675
1.070884
0.978384
1.196027
1.158956
1.274035
1.189092
0.966684
0.917064
0.875170
1.023998
0.777792
0.820659
0.881801
0.909902
1.050730
1.292043
1.355412
1.397544
1.520550
1.568329
1.604783
1.576828
1.558246
1.488861
1.453869
1.344981
1.400424
1.412972
1.422759
1.473651
1.545070
1.649411
1.533509
1.541170
1.550533
1.567210
1.575880
1.577542
1.595507
1.607605
1.618584
1.612157
1.619920
1.614910
1.612397
1.630422
1.614099
1.604392
1.586405
1.564818
1.553764
1.542223
1.563312
1.594947
1.563449
1.481298
1.561765
1.550539
1.539187
1.511065
1.502627
1.459755
1.454244
1.509072
1.502891
1.502392
1.513733
1.567858
1.568267
1.547500
1.549874
1.575288
1.491498
1.544597
1.532618
1.572551
1.550680
1.572138
1.549875
1.568655
1.532400
1.572087
1.576051
1.598234
1.569504
1.583089
1.590045
1.577177
1.584926
1.567869
1.580111
1.577493
1.576398
1.584128
1.586385
1.563349
1.563469
1.505088
1.531259
1.460900
1.535309
1.511360
1.536319
1.571556
1.544031
1.547409
1.598865
1.603237
1.580203
1.588844
1.601332
1.617223
1.626295
1.618884
1.601553
1.635518
1.602877
1.612357
1.623257
1.620366
1.596251
1.611362
1.592757
1.582342
1.607058
1.605390
1.621797
1.569689
1.566903
1.501047
1.585619
1.540987
1.557568
1.571202
1.566909
1.537731
1.542430
1.535327
1.521321
1.547836
1.473635
1.413310
1.423180
1.416157
1.422932
1.341832
1.256243
1.139972
1.362260
1.493452
1.474520
1.455644
1.643106
1.635576
1.634373
1.620531
1.613829
1.605619
1.594987
1.586681
1.582033
1.574942
1.552422
1.342958
1.503550
1.496222
1.434934
1.410007
1.347300
1.301834
1.259720
1.222220
1.176502
1.147213
1.083752
1.042841
1.016475
1.045292
1.179456
1.341917
1.479030
1.563492
1.617768
1.624397
1.571618
1.540457
1.509972
1.434755
1.342634
1.116706
0.952549
0.962560
1.130545
1.333195
1.462862
1.543651
1.615733
1.597197
1.539799
1.382561
1.149847
1.448374
1.469456
1.483769
1.282672
1.267988
1.105003
1.379803
1.207971
0.963650
0.905164
0.841802
0.972680
1.155556
1.394395
1.415312
1.550482
1.591966
1.589981
1.594424
1.578083
1.549459
1.486861
1.443341
1.420395
1.418124
1.452071
1.488436
1.532138
1.589741
1.013015
1.189331
1.364776
1.578501
1.532639
1.274792
1.379470
1.367560
1.415680
1.381903
1.357963
1.375124
1.348472
1.320746
1.273787
1.212838
1.178405
1.131882
1.111918
1.110219
1.188113
1.435780
1.510956
1.584572
1.614299
1.598830
1.572520
1.565846
1.533668
1.516311
1.430528
1.237636
1.061665
1.244029
1.282575
1.392210
1.515570
1.570599
1.593731
1.560919
1.445844
1.276088
1.463504
1.339737
1.176266
1.063709
1.154355
1.433732
1.390761
1.177658
1.287215
1.324511
1.382133
1.411487
1.476156
1.550712
1.557927
1.447319
1.432739
1.468192
1.345493
1.339265
1.245535
1.250994
1.271147
1.392711
1.596773
1.602389
1.605390
1.602612
1.601366
1.599133
1.592196
1.585198
1.566506
1.561052
1.551852
1.539767
1.548506
1.555569
1.573204
1.576905
1.612453
1.623316
1.604121
1.627904
1.605060
1.626454
1.619542
1.574749
1.575557
1.574039
1.521414
1.576381
1.579531
1.561557
1.552763
1.557636
1.577118
1.573533
1.542973
1.498455
1.499667
1.530831
1.551883
1.505504
1.568434
1.515211
1.577795
1.574156
1.539284
1.553975
1.588435
1.521896
1.560210
1.542668
1.568488
1.557829
1.582473
1.557014
1.588089
1.563668
1.591193
1.590543
1.593704
1.575511
1.581664
1.600827
1.591329
1.591029
1.604160
1.618791
1.590670
1.594398
1.593201
1.602700
1.576985
1.555919
1.519223
1.530839
1.522307
1.545125
1.544206
1.557618
1.567642
1.582840
1.549238
1.589403
1.596105
1.609060
1.604741
1.591467
1.626013
1.636875
1.618765
1.618464
1.627093
1.624608
1.604600
1.628453
1.595330
1.624108
1.617469
1.624208
1.601043
1.592830
1.635535
1.605953
1.601789
1.579243
1.564484
1.575481
1.558568
1.517063
1.594111
1.552916
1.577516
1.524530
1.521060
1.530519
1.477572
1.498573
1.447235
1.423340
1.418845
1.400331
1.321267
1.190041
1.123093
0.989513
1.387882
1.631090
1.244956
1.290446
1.603483
1.666804
1.652857
1.270546
1.349995
1.497334
1.564563
1.611182
1.549396
1.454300
1.444141
1.359950
1.296386
1.231477
1.100359
1.140049
1.287721
1.350708
1.206762
1.212225
1.149211
1.111444
1.194597
1.093509
1.109476
1.212785
1.355675
1.309592
1.451453
1.479172
1.524202
1.358887
1.361074
1.218451
1.136547
0.992087
0.989646
1.139015
1.223891
1.144528
1.104446
1.145042
1.236779
1.336743
1.304484
1.019503
1.435351
1.277202
1.176863
1.085306
1.188959
1.348868
1.258096
1.394368
1.453350
1.448754
1.546360
1.471135
1.459066
1.357525
1.181480
1.088474
1.292426
1.593853
1.594053
1.582735
1.539337
1.540265
1.500666
1.501655
1.521929
1.294472
1.127850
1.027984
0.994411
1.124392
1.243173
1.282812
1.367023
1.411349
1.464924
1.493204
1.514791
1.540551
1.593566
1.563900
1.536009
1.406609
1.406635
1.319422
0.971169
1.185386
1.287390
1.465107
1.581911
1.599260
1.590419
1.594461
1.580465
1.281119
1.585970
1.574429
1.581486
1.539967
1.488153
1.374872
1.326234
1.273711
1.183702
1.074365
1.103613
1.294842
1.320403
1.406218
1.474689
1.498796
1.549484
1.553445
1.470031
1.412046
1.377089
1.402954
1.420701
1.440718
1.442368
1.304848
1.167903
1.224717
1.272869
1.402700
1.465388
1.469070
1.459627
1.508852
1.558731
1.539997
1.563251
1.222558
1.178886
1.172056
1.198074
1.455648
1.303662
1.305620
1.210819
1.488404
1.536445
1.515032
1.495950
1.367079
1.410956
1.393447
1.244594
1.208521
1.038671
1.635407
1.427728
1.235897
1.197143
1.156512
1.175358
1.244038
1.218489
1.102449
0.895418
0.955528
1.219328
1.509141
1.572367
1.588796
1.603999
1.631325
1.627979
1.547310
1.354748
1.210287
1.086968
1.142315
1.386395
1.502573
1.538477
1.560133
1.550758
1.522105
1.543712
1.540994
1.563668
1.595033
1.498326
1.464288
1.459974
1.471777
1.489987
1.516973
1.530684
1.576483
1.586519
1.592374
1.593181
1.593739
1.591907
1.590698
1.584295
1.578143
1.569326
1.540134
1.531262
1.519755
1.511345
1.559566
1.572469
1.612445
1.621759
1.593989
1.582355
1.617945
1.592389
1.582849
1.542344
1.561789
1.539293
1.569025
1.569974
1.578473
1.578547
1.591160
1.600350
1.579132
1.565511
1.527404
1.561277
1.553697
1.550531
1.553134
1.561058
1.536783
1.564422
1.571922
1.534222
1.549555
1.564680
1.549330
1.563501
1.542111
1.559440
1.562606
1.591077
1.562606
1.581267
1.568126
1.590747
1.589329
1.610565
1.571484
1.608122
1.622297
1.600348
1.595370
1.607733
1.610872
1.608044
1.602450
1.608435
1.598284
1.585279
1.560700
1.554211
1.552586
1.586982
1.587994
1.564977
1.566835
1.580258
1.584593
1.586937
1.577855
1.591405
1.603034
1.608108
1.623804
1.640031
1.629902
1.619036
1.623515
1.622792
1.613860
1.631783
1.601728
1.618902
1.615591
1.616757
1.599964
1.614409
1.602946
1.605273
1.603222
1.609276
1.567437
1.550125
1.553681
1.545625
1.557046
1.541762
1.554684
1.508274
1.538123
1.497305
1.474139
1.472550
1.448180
1.452178
1.430649
1.384252
1.320309
1.235080
1.118928
1.094293
1.140791
1.108608
1.604050
1.623515
0.962135
1.167816
1.157346
1.139988
1.142313
1.246560
1.201525
1.241214
1.281577
1.273100
1.223376
1.245836
1.187670
1.092278
1.149556
1.603177
1.583131
1.573478
1.562300
1.509337
1.477042
1.398645
1.356718
1.301086
1.273607
1.248520
1.193722
1.205512
1.289123
1.463193
1.358582
1.534884
1.528540
1.531415
1.495473
1.372575
1.414496
1.362928
1.439170
1.474359
1.432018
1.415283
1.416747
1.319997
1.347961
1.339167
1.389837
1.415337
1.462850
1.479533
1.489408
1.514673
1.594849
1.512344
1.465128
1.113933
1.094886
0.948012
1.086162
1.579629
1.591082
1.607809
1.626818
1.607198
1.524226
1.365295
1.251513
1.169426
1.274516
1.430736
1.518889
1.561137
1.554472
1.529524
1.548148
1.554369
1.570645
1.612426
1.631448
1.189632
1.310813
1.495866
1.581954
1.589958
1.594837
1.569389
1.561895
1.544675
1.551447
1.534583
1.507762
1.496947
1.494290
1.507115
1.530755
1.545987
1.535230
1.558202
1.468589
1.408177
1.250205
1.215938
1.321879
1.550200
1.585707
1.574363
1.579045
1.543555
1.512964
1.489172
1.502650
1.483440
1.485624
1.210263
1.125175
1.037591
0.972830
1.182584
1.205586
1.273946
1.355170
1.388332
1.441384
1.482273
1.550698
1.549789
1.571861
1.562184
1.565041
1.572829
1.574723
1.574801
1.567269
1.541505
1.502073
1.486239
1.493040
1.511333
1.567342
1.598630
1.575130
1.569586
1.554770
1.539307
1.575298
1.513895
1.519642
1.542366
1.554061
1.563214
1.572341
1.582066
1.597429
1.607720
1.593451
1.596528
1.584479
1.497555
1.558291
1.492006
1.521779
1.552132
1.553863
1.553797
1.537991
1.537868
1.534437
1.538917
1.505581
1.555587
1.580010
1.564008
1.540100
1.573697
1.580417
1.565528
1.585498
1.599883
1.578076
1.614586
1.614625
1.582401
1.600201
1.615959
1.590448
1.602276
1.593768
1.617652
1.598862
1.611075
1.621396
1.604212
1.591414
1.573624
1.577670
1.591291
1.610944
1.617862
1.589556
1.586347
1.587521
1.597486
1.595362
1.593412
1.589250
1.598852
1.599518
1.622313
1.618546
1.623868
1.606852
1.636588
1.637214
1.636664
1.620325
1.628054
1.623767
1.620458
1.620164
1.612755
1.605975
1.613421
1.637099
1.613091
1.622052
1.604696
1.600778
1.606592
1.597224
1.571989
1.545820
1.566372
1.571761
1.563144
1.568659
1.534027
1.536572
1.479994
1.514440
1.455385
1.468061
1.443468
1.459581
1.400058
1.404818
1.311326
1.222876
1.124627
0.999976
0.950944
1.567303
1.570901
1.572056
1.558480
1.527888
1.495987
1.487127
1.428695
1.397628
1.342607
1.321408
1.197868
1.235617
1.198569
1.309687
1.325769
1.431726
1.524315
1.498172
1.504441
1.440865
1.367921
1.416751
1.429020
1.430549
1.425038
1.439739
1.444842
1.377130
1.368213
1.306334
1.342226
1.356038
1.383916
1.420205
1.452623
1.463891
1.491195
1.496154
1.523311
1.541233
1.586493
1.479065
1.337381
1.444620
1.409382
1.378268
1.328705
1.404086
1.297345
1.304515
1.443274
1.373441
1.415596
1.452004
1.446951
1.334034
1.282607
1.331487
1.380543
1.405961
1.500971
1.583486
1.485061
1.577191
1.306183
1.302682
1.349898
1.397436
1.355064
1.360668
1.356895
1.322108
1.271381
1.225027
1.193609
1.178845
1.202094
1.312813
1.428855
1.536708
1.642087
1.556475
1.587368
1.485780
1.421111
1.410200
1.333606
1.280330
1.226297
1.197751
1.287062
1.350004
1.406598
1.487474
1.459252
1.486514
1.651478
1.644458
1.520549
1.475007
1.313705
1.405729
1.512338
1.547164
1.571087
1.571461
1.511820
1.470195
1.358480
1.316757
1.216279
1.586910
1.533964
1.423158
1.336184
1.346797
1.291305
1.154872
1.105747
1.207922
1.183155
1.550799
1.495444
1.563338
1.538708
1.516900
1.513905
1.523533
1.535648
1.548780
1.558805
1.554265
1.439473
1.315151
1.293420
1.366820
1.526062
1.575711
1.566814
1.568082
1.582485
1.575856
1.509178
1.520062
1.486474
1.472367
1.458926
1.437140
1.224222
1.160236
1.106010
1.137134
1.190031
1.185296
1.170164
1.185638
1.204705
1.188821
1.198850
1.211960
1.198169
1.283922
1.262892
1.560938
1.561928
1.554129
1.538515
1.496580
1.564370
1.542223
1.558615
1.534754
1.467427
1.531417
1.460726
1.501843
1.525913
1.560861
1.576903
1.577088
1.603034
1.602335
1.606197
1.602832
1.628383
1.415095
1.512347
1.482421
1.436740
1.519215
1.568671
1.556378
1.553080
1.552889
1.560613
1.539789
1.560148
1.517586
1.530878
1.581656
1.560710
1.535720
1.570889
1.599216
1.573876
1.597644
1.592753
1.588649
1.635049
1.599566
1.588259
1.592348
1.617695
1.585392
1.599900
1.605153
1.614108
1.605463
1.619729
1.619422
1.608749
1.591594
1.591220
1.586725
1.590093
1.620370
1.579150
1.603388
1.599454
1.600048
1.600476
1.606940
1.606016
1.590980
1.602028
1.312078
1.563792
1.563612
1.556201
1.529054
1.499316
1.422731
1.509808
1.504889
1.528022
1.491253
1.460663
1.506396
1.475634
1.519345
1.538890
1.564177
1.575022
1.578875
1.613721
1.584743
1.614594
1.595756
1.550528
1.549014
1.579626
1.432565
1.436369
1.527535
1.550341
1.568688
1.568293
1.573802
1.546807
1.557032
1.531280
1.501246
1.536396
1.587963
1.565008
1.540809
1.553987
1.587168
1.557841
1.581350
1.579917
1.596845
1.610354
1.607775
1.586993
1.607623
1.607644
1.574717
1.597664
1.596414
1.606932
1.625419
1.628890
1.600499
1.597636
1.589195
1.589405
1.487639
1.630276
1.569816
1.592400
1.601103
1.603141
1.610180
1.611758
1.605767
1.599399
1.606122
1.607757
1.610855
1.611662
1.657712
1.653449
1.640210
1.620876
1.519147
1.433790
1.411977
1.461574
1.519815
1.552056
1.576551
1.519932
1.463367
1.409896
1.419904
1.350452
1.348954
1.270707
1.311424
1.246363
1.268129
1.257485
1.280711
1.211365
1.166059
1.191657
1.194306
1.179641
1.185034
1.182624
1.162791
1.227721
1.189093
1.348157
1.464733
1.466640
1.412927
1.505924
1.252365
1.397123
1.470214
1.497834
1.560482
1.625769
1.622511
1.587503
1.597017
1.535695
1.514589
1.485729
1.459058
1.420590
1.373573
1.361084
1.334931
1.059263
1.093488
1.176275
1.397648
1.503169
1.539359
1.581392
1.556420
1.599683
1.608012
1.609712
1.592648
1.507302
1.343250
1.328361
1.277719
1.347315
1.487788
1.553881
1.563282
1.536561
1.525106
1.549043
1.568320
1.603873
1.622894
1.601804
1.437481
1.499027
1.511936
1.475087
1.553794
1.564048
1.554100
1.554872
1.566948
1.578345
1.580573
1.576967
1.591210
1.592943
1.594529
1.561906
1.525566
1.457174
1.537691
1.467423
1.448663
1.529833
1.552579
1.566070
1.579707
1.564793
1.546253
1.566865
1.567517
1.531365
1.557067
1.573329
1.565888
1.545265
1.564986
1.581401
1.562096
1.582002
1.616949
1.612640
1.596688
1.599441
1.583889
1.596863
1.610380
1.581203
1.596061
1.594483
1.603446
1.627658
1.612375
1.599861
1.593033
1.585493
1.574054
1.589309
1.510083
1.614281
1.574021
1.596372
1.604306
1.606479
1.609822
1.605108
1.604092
1.603917
1.613152
1.623701
1.607015
1.620282
1.637370
1.636956
1.639802
1.622206
1.633279
1.629641
1.610218
1.622633
1.623748
1.601762
1.614050
1.625526
1.621985
1.623759
1.606635
1.607333
1.585634
1.606105
1.555675
1.552413
1.552062
1.561823
1.535560
1.579487
1.491335
1.496017
1.519020
1.489359
1.488680
1.468813
1.468921
1.462136
1.418492
1.408510
1.353206
1.277926
1.149216
1.490256
1.564071
1.138450
1.242264
1.261758
1.290665
1.393899
1.407485
1.472465
1.440439
1.415232
1.302633
1.418271
1.510237
1.555288
1.567335
1.559484
1.550740
1.585127
1.557611
1.557965
1.484714
1.482656
1.457352
1.436142
1.429478
1.173677
1.244667
1.136369
1.167403
1.208771
1.200957
1.287043
1.375043
1.450442
1.458011
1.523739
1.554578
1.542161
1.565792
1.330830
1.380224
1.340654
1.557133
1.451814
1.362068
1.362960
1.370159
1.347900
1.318641
1.275181
1.246244
1.246457
1.277788
1.331453
1.419042
1.527238
1.627754
1.632199
1.631412
1.641094
1.628560
1.631693
1.625768
1.616675
1.615695
1.619812
1.610172
1.604852
1.626515
1.629923
1.623955
1.606404
1.603710
1.580880
1.601526
1.559098
1.544161
1.563622
1.544276
1.556032
1.537779
1.524154
1.520735
1.501318
1.524373
1.491204
1.506414
1.500015
1.473266
1.466794
1.426459
1.366885
1.283692
1.201567
1.634153
1.648855
1.652220
1.623092
1.572360
1.540075
1.437716
1.444551
1.490784
1.522963
1.554282
1.540626
1.537982
1.482698
1.417010
1.429153
1.395768
1.384289
1.341792
1.296619
1.277541
1.281130
1.274640
1.263899
1.240896
1.205466
1.356457
1.379919
1.402604
1.419999
1.438472
1.451767
1.470315
1.481271
1.512658
1.522152
1.539021
1.594646
1.573507
1.487914
1.414347
1.216892
1.480415
1.480475
1.516592
1.563823
1.593869
1.525729
1.470887
1.514461
1.565774
1.606097
1.612106
1.613715
1.585669
1.387929
1.464693
1.528393
1.527002
1.553212
1.535607
1.527368
1.509670
1.522325
1.530848
1.544340
1.558556
1.564152
1.566705
1.584252
1.542804
1.529214
1.151263
1.167635
1.249192
1.309341
1.313491
1.304945
1.390899
1.433726
1.415905
1.464514
1.437951
1.425569
1.375960
1.351768
1.362239
1.361536
1.433076
1.521836
1.549163
1.473162
1.434487
1.445481
1.416222
1.335254
1.420226
1.376169
1.506220
1.542766
1.555022
1.556865
1.536404
1.519437
1.515324
1.474502
1.463279
1.446811
1.361646
1.171625
1.150185
1.234928
1.164239
1.192864
1.212408
1.222425
1.306427
1.379382
1.391347
1.468180
1.459362
1.479061
1.518628
1.492473
1.540958
1.381283
1.391874
1.397654
1.388766
1.433490
1.454310
1.494794
1.507257
1.515998
1.511076
1.541118
1.530339
1.596345
1.611429
1.567517
1.399605
1.395271
1.519740
1.574304
1.461611
1.563597
1.588544
1.200197
1.207240
1.362370
1.349646
1.315226
1.294621
1.296113
1.333252
1.381104
1.432032
1.499929
1.526945
1.529714
1.538669
1.503119
1.480577
1.445178
1.418249
1.353594
1.366508
1.313927
1.277465
1.174819
1.278231
1.352908
1.349853
1.414006
1.398500
1.494468
1.465352
1.442064
1.422787
1.421403
1.413449
1.380528
1.447899
1.454579
1.467981
1.432668
1.385157
1.584120
1.607169
1.597907
1.576233
1.478634
1.380614
1.364691
1.330193
1.401580
1.510224
1.554390
1.554174
1.571504
1.591383
1.600622
1.624522
1.597981
1.553584
1.159116
1.147916
1.155384
1.224491
1.295226
1.279564
1.328778
1.407315
1.370882
1.418709
1.432090
1.427083
1.458287
1.460926
1.421310
1.382506
1.349062
1.341075
1.344923
1.369098
1.424607
1.455270
1.479365
1.504771
1.517152
1.534043
1.508265
1.529409
1.443293
1.416513
1.424306
1.407058
1.356987
1.343960
1.369976
1.337132
1.305842
1.355641
1.419107
1.403213
1.409890
1.472806
1.468130
1.484956
1.458872
1.468831
1.450245
1.474874
1.403687
1.473555
1.447609
1.448015
1.442535
1.363140
1.543453
1.518408
1.496607
1.499646
1.466385
1.444232
1.448258
1.460555
1.640471
1.640767
1.650301
1.630788
1.590110
1.545467
1.592937
1.495285
1.524605
1.525124
1.561079
1.553599
1.499996
1.468371
1.458677
1.420833
1.418845
1.393935
1.354759
1.310645
1.268983
1.260250
1.263661
1.241515
1.229261
1.214849
1.470542
1.446335
1.444759
1.444883
1.425053
1.485398
1.392707
1.438970
1.554848
1.564329
1.541804
1.533605
1.511257
1.507664
1.473020
1.464528
1.460603
1.482363
1.291229
1.105555
1.045131
1.161575
1.179292
1.247865
1.244421
1.273580
1.289138
1.299100
1.440595
1.431241
1.444539
1.463380
1.498567
1.498034
1.507064
1.505727
1.620828
1.626541
1.631487
1.633406
1.639365
1.628271
1.630340
1.616095
1.625212
1.614244
1.603742
1.621753
1.627483
1.634900
1.599936
1.586296
1.577730
1.591822
1.543493
1.557052
1.546796
1.541762
1.562055
1.526989
1.520382
1.517662
1.519115
1.529853
1.502583
1.503393
1.491560
1.446302
1.494253
1.449085
1.394189
1.322692
1.171499
1.537869
1.573088
1.593621
1.608268
1.607587
1.604289
1.589225
1.602347
1.356575
1.421394
1.488056
1.488672
1.515839
1.534264
1.539847
1.556345
1.579144
1.590918
1.560957
1.545731
1.516031
1.487245
1.521694
1.526879
1.559813
1.540415
1.523632
1.572747
1.568219
1.582585
1.598250
1.606368
1.607939
1.606401
1.600729
1.573740
1.551202
1.570560
1.571528
1.565434
1.516659
1.477117
1.515460
1.500361
1.497984
1.555179
1.547117
1.587111
1.586191
1.605603
1.542859
1.463284
1.440684
1.392839
1.384962
1.463133
1.483787
1.491125
1.538470
1.537064
1.537614
1.545746
1.555357
1.576049
1.590273
1.620788
1.208642
1.186891
1.207534
1.158436
1.136420
1.199464
1.482569
1.535346
1.540666
1.553041
1.547271
1.536545
1.560750
1.562401
1.567508
1.471056
1.526484
1.533079
1.545541
1.567044
1.577463
1.547764
1.537864
1.546723
1.556523
1.549458
1.545789
1.520106
1.560303
1.524035
1.558566
1.583855
1.569946
1.540014
1.616734
1.599777
1.605794
1.590139
1.589610
1.594680
1.611492
1.570646
1.590733
1.583088
1.613772
1.621932
1.429526
1.444792
1.449614
1.460301
1.458925
1.449488
1.444114
1.421649
1.439589
1.482611
1.548876
1.544336
1.560172
1.554100
1.520875
1.513558
1.479522
1.493358
1.446549
1.448384
1.427646
1.548392
1.399268
1.293085
1.190839
1.238988
1.202779
1.300555
1.321506
1.287146
1.340520
1.391813
1.421270
1.429339
1.446211
1.459839
1.482528
1.487284
1.480938
1.450463
1.513342
1.580280
1.586579
1.591800
1.598696
1.604087
1.608035
1.609682
1.603324
1.598176
1.601209
1.608575
1.553013
1.555984
1.534724
1.627835
1.614520
1.570066
1.602455
1.591714
1.584245
1.436739
1.467501
1.506726
1.479711
1.506349
1.497149
1.519944
1.538388
1.551630
1.560913
1.548357
1.591799
1.611453
1.562709
1.520838
1.448045
1.325130
1.592790
1.615928
1.615444
1.194472
1.241315
1.254897
1.319353
1.307681
1.351240
1.365729
1.351324
1.380980
1.429497
1.645220
1.643567
1.638791
1.632591
1.605719
1.561365
1.526474
1.542881
1.510728
1.519740
1.550860
1.543819
1.512465
1.496564
1.508783
1.444137
1.443290
1.428033
1.409517
1.377337
1.350223
1.301815
1.273932
1.221784
1.211956
1.617157
1.624633
1.624488
1.634919
1.633820
1.625440
1.631345
1.615230
1.618874
1.629541
1.614965
1.618790
1.620683
1.615767
1.600219
1.619878
1.628745
1.638264
1.606420
1.598252
1.577804
1.587300
1.578430
1.545047
1.522144
1.538749
1.512737
1.518651
1.535334
1.518903
1.535701
1.537824
1.507810
1.521991
1.534090
1.564485
1.551998
1.580791
1.581211
1.575767
1.520131
1.472754
1.462322
1.430869
1.447112
1.472811
1.559444
1.590625
1.614000
1.617479
1.609307
1.592934
1.586885
1.590698
1.582942
1.539627
1.549410
1.527798
1.569705
1.582670
1.576969
1.595458
1.601429
1.601182
1.602142
1.611404
1.616278
1.625182
1.633926
1.633440
1.626951
1.623428
1.617608
1.607644
1.602551
1.600551
1.624126
1.215579
1.214551
1.417535
1.384364
1.367645
1.379414
1.406644
1.442539
1.458040
1.460549
1.506593
1.524213
1.488218
1.485090
1.472367
1.432213
1.367357
1.437593
1.380718
1.420699
1.378211
1.388095
1.362989
1.451386
1.415055
1.442451
1.457465
1.450058
1.472589
1.437245
1.487290
1.446893
1.474502
1.455224
1.436009
1.448054
1.621421
1.621894
1.609818
1.612403
1.625397
1.609064
1.606724
1.605831
1.617701
1.618408
1.643098
1.595039
1.607453
1.564614
1.579574
1.587110
1.520985
1.547680
1.519289
1.537069
1.536932
1.538155
1.540816
1.539099
1.529140
1.518261
1.630388
1.440544
1.450039
1.445109
1.428507
1.471004
1.465993
1.478757
1.431041
1.456208
1.416807
1.462909
1.516155
1.535251
1.545182
1.557788
1.556112
1.530830
1.496616
1.516092
1.509592
1.502571
1.460415
1.492812
1.451116
1.594359
1.608490
1.347401
1.193696
1.204977
1.227895
1.246418
1.297606
1.416893
1.610601
1.507288
1.528263
1.541183
1.560712
1.573578
1.544116
1.557337
1.566562
1.526593
1.553557
1.546902
1.522020
1.571976
1.525289
1.577665
1.584265
1.566094
1.563864
1.606051
1.599299
1.592342
1.588248
1.565323
1.584734
1.609737
1.580927
1.564248
1.573220
1.608940
1.603043
1.570567
1.535777
1.541784
1.544910
1.552605
1.560988
1.557662
1.553597
1.558060
1.513315
1.554942
1.521865
1.540032
1.561460
1.535065
1.582137
1.567108
1.562155
1.566870
1.592936
1.603132
1.586156
1.585272
1.570007
1.589911
1.613063
1.576920
1.568183
1.575151
1.576955
1.588415
1.597226
1.616663
1.605283
1.616140
1.603766
1.586394
1.580012
1.577309
1.573016
1.557351
1.454269
1.532951
1.568636
1.526913
1.580703
1.602941
1.604995
1.587304
1.593080
1.607514
1.595841
1.597338
1.601839
1.609760
1.603235
1.634898
1.629446
1.625535
1.627538
1.626412
1.222107
1.224942
1.255174
1.269843
1.200688
1.220014
1.631821
1.641002
1.628726
1.626357
1.614536
1.593768
1.569379
1.555508
1.556957
1.521919
1.505609
1.564321
1.566467
1.543605
1.517637
1.510925
1.457185
1.485696
1.463128
1.450567
1.418950
1.385042
1.351673
1.334297
1.264358
1.533344
1.537406
1.553394
1.520151
1.500211
1.482822
1.467160
1.484659
1.502048
1.505521
1.541683
1.542108
1.568389
1.563071
1.582589
1.425172
1.424242
1.438886
1.457010
1.517473
1.518577
1.556822
1.547983
1.564403
1.555222
1.557624
1.597008
1.507433
1.587103
1.320177
1.321685
1.395159
1.409833
1.423515
1.425417
1.429545
1.465136
1.482574
1.471678
1.483876
1.490996
1.418946
1.484647
1.518611
1.514460
1.538637
1.553126
1.563826
1.553207
1.537423
1.552599
1.509306
1.519721
1.454594
1.553405
1.514959
1.482096
1.481129
1.564179
1.604933
1.376200
1.255209
1.185870
1.266379
1.294698
1.246156
1.326698
1.388676
1.404775
1.422751
1.434143
1.443485
1.463772
1.477154
1.472754
1.454631
1.578185
1.639016
1.341684
1.380993
1.391173
1.396604
1.416700
1.391335
1.414372
1.429745
1.441028
1.463126
1.468456
1.470673
1.475979
1.469017
1.439109
1.454152
1.434455
1.399936
1.377334
1.387313
1.396286
1.424082
1.392580
1.411752
1.317770
1.380412
1.398735
1.422909
1.419203
1.439488
1.461871
1.455855
1.422216
1.495848
1.479206
1.502828
1.492100
1.460542
1.409749
1.482882
1.424096
1.609519
1.607464
1.608897
1.611082
1.603810
1.614721
1.623029
1.638207
1.611949
1.593569
1.586099
1.566210
1.591399
1.560052
1.560593
1.545519
1.515206
1.530296
1.523867
1.567694
1.542047
1.535585
1.606119
1.603150
1.602152
1.595299
1.578688
1.556806
1.562624
1.584846
1.557761
1.423144
1.526231
1.451805
1.567902
1.524756
1.579434
1.582027
1.579023
1.589714
1.601681
1.605509
1.602831
1.592585
1.598324
1.606805
1.593740
1.628046
1.628871
1.619519
1.630614
1.624384
1.602160
1.617675
1.599230
1.609516
1.626218
1.629863
1.604261
1.624738
1.615667
1.596881
1.578476
1.565797
1.557672
1.542653
1.517483
1.545207
1.568739
1.551312
1.527347
1.532986
1.503731
1.492773
1.495983
1.458006
1.445197
1.431040
1.419822
1.394800
1.352417
1.344493
1.377941
1.470133
1.471785
1.508883
1.495947
1.485847
1.502235
1.540190
1.502703
1.521048
1.444467
1.420514
1.418674
1.434711
1.451166
1.443275
1.511195
1.465389
1.455942
1.469751
1.432532
1.459689
1.447270
1.471316
1.406973
1.444325
1.440629
1.384820
1.394606
1.356086
1.469968
1.340489
1.341279
1.404561
1.395612
1.415670
1.446325
1.466321
1.462566
1.483064
1.485125
1.444480
1.494092
1.488090
1.451130
1.425561
1.523500
1.443441
1.507428
1.571235
1.529340
1.534862
1.503998
1.492358
1.468595
1.519588
1.486064
1.507104
1.543653
1.551912
1.560179
1.574390
1.581843
1.608189
1.385033
1.400555
1.426314
1.426847
1.446159
1.465741
1.471302
1.501442
1.502126
1.482544
1.485976
1.496878
1.484762
1.511381
1.520418
1.556840
1.558318
1.564905
1.571560
1.541601
1.536759
1.466197
1.536761
1.445982
1.581629
1.535738
1.496237
1.497846
1.536491
1.597204
1.610573
1.597333
1.588790
1.537978
1.449367
1.302369
1.233366
1.300692
1.269105
1.331002
1.343167
1.384371
1.387086
1.408680
1.432830
1.441625
1.443845
1.449898
1.455773
1.458551
1.601550
1.599436
1.594202
1.589424
1.592566
1.617609
1.627419
1.624190
1.614814
1.619073
1.627980
1.600429
1.613449
1.596341
1.606019
1.608027
1.614351
1.532157
1.545340
1.514328
1.586434
1.524000
1.564888
1.570550
1.556881
1.555408
1.577717
1.576166
1.567015
1.579960
1.559039
1.573450
1.598954
1.560567
1.569119
1.554485
1.621577
1.617319
1.605618
1.606432
1.611875
1.593046
1.586619
1.579075
1.566807
1.553804
1.528804
1.556934
1.567603
1.525035
1.527993
1.520184
1.500492
1.513556
1.486303
1.541347
1.542738
1.513965
1.477752
1.493331
1.498698
1.483025
1.508435
1.561423
1.566927
1.573421
1.565418
1.617944
1.502206
1.500772
1.519216
1.516189
1.437993
1.425818
1.441456
1.442922
1.467165
1.504577
1.573313
1.572636
1.583683
1.592380
1.466095
1.369468
1.387833
1.309530
1.300127
1.318275
1.382698
1.377809
1.379433
1.398831
1.434022
1.439869
1.437844
1.442574
1.449401
1.445810
1.444894
1.482489
1.539692
1.514349
1.516696
1.562947
1.539751
1.567670
1.526562
1.557964
1.556673
1.547099
1.576912
1.556467
1.557757
1.557926
1.551829
1.554349
1.563480
1.582717
1.601883
1.592542
1.594759
1.588762
1.571665
1.546105
1.542193
1.567075
1.467951
1.562077
1.546294
1.512862
1.553546
1.606322
1.611354
1.614089
1.615826
1.634162
1.601976
1.600597
1.599879
1.565245
1.580357
1.574528
1.563745
1.525400
1.490817
1.481092
1.369056
1.350086
1.404277
1.412125
1.416278
1.431076
1.597694
1.595158
1.593534
1.600050
1.626838
1.620482
1.604175
1.611051
1.606905
1.620991
1.593917
1.596988
1.599804
1.595477
1.609190
1.603169
1.607620
1.612999
1.616732
1.615152
1.616276
1.620641
1.606399
1.601204
1.573888
1.560585
1.555185
1.552528
1.513638
1.488694
1.507840
1.616652
1.607065
1.614151
1.607539
1.607880
1.599452
1.589431
1.582662
1.556949
1.552469
1.434241
1.450917
1.514804
1.521179
1.424163
1.537397
1.493027
1.445658
1.520951
1.478229
1.515968
1.530580
1.450045
1.446774
1.450689
1.446143
1.437068
1.410642
1.435276
1.430896
1.442694
1.445388
1.475350
1.430422
1.402953
1.410078
1.489547
1.517063
1.540170
1.556284
1.578029
1.585641
1.595781
1.606317
1.627335
1.617889
1.581959
1.531561
1.554111
1.527514
1.527106
1.521292
1.487603
1.490186
1.495165
1.509785
1.519470
1.507964
1.509444
1.510669
1.464887
1.539765
1.534197
1.549840
1.528096
1.586725
1.538227
1.551477
1.549327
1.553910
1.537128
1.563780
1.546229
1.549768
1.557952
1.560759
1.572072
1.570648
1.586857
1.586208
1.589940
1.585971
1.576786
1.559148
1.548706
1.543703
1.496321
1.561363
1.535574
1.513565
1.483239
1.554562
1.564387
1.580519
1.584639
1.583287
1.593689
1.595268
1.598351
1.601946
1.625173
1.623126
1.588666
1.610834
1.597902
1.612369
1.441360
1.477034
1.430973
1.508781
1.466470
1.372314
1.350812
1.308306
1.334951
1.364740
1.396247
1.410461
1.419265
1.432453
1.427622
1.451098
1.451590
1.449049
1.439834
1.516909
1.522310
1.540519
1.548559
1.556250
1.556098
1.562087
1.557005
1.551598
1.527940
1.540423
1.470551
1.492185
1.534624
1.535719
1.520133
1.528195
1.530735
1.618661
1.616168
1.605758
1.606732
1.603523
1.606563
1.608725
1.602057
1.571382
1.565202
1.572772
1.535541
1.556479
1.536080
1.507471
1.516451
1.460332
1.506589
1.486340
1.515294
1.541881
1.526918
1.520624
1.372775
1.411423
1.371214
1.447356
1.471798
1.460322
1.458284
1.490312
1.530232
1.523406
1.496367
1.523488
1.538573
1.592033
1.593887
1.589114
1.601825
1.612541
1.610608
1.606878
1.615587
1.610745
1.608747
1.604806
1.624938
1.606869
1.612404
1.530319
1.536844
1.556520
1.539940
1.531819
1.519159
1.522980
1.512295
1.552789
1.556284
1.545412
1.552548
1.570977
1.553436
1.571595
1.573721
1.584764
1.586222
1.584685
1.577079
1.566789
1.552973
1.524285
1.520784
1.446369
1.488388
1.498463
1.450618
1.542033
1.524704
1.560170
1.575436
1.568990
1.580638
1.576728
1.588707
1.589617
1.591542
1.598811
1.611712
1.631411
1.587259
1.592425
1.603112
1.587847
1.432741
1.441792
1.402086
1.415271
1.404852
1.436447
1.411726
1.380277
1.438679
1.465233
1.445738
1.444539
1.468172
1.439047
1.462697
1.449327
1.547717
1.577867
1.565378
1.596100
1.599032
1.620503
1.623771
1.600639
1.560133
1.363409
1.393508
1.441134
1.437962
1.432439
1.424722
1.442130
1.459972
1.447749
1.479807
1.541388
1.530348
1.513271
1.504748
1.547145
1.537153
1.508201
1.535462
1.535775
1.536876
1.518911
1.557033
1.553604
1.553212
1.561503
1.579547
1.580615
1.583156
1.578663
1.567581
1.543411
1.520881
1.538661
1.510721
1.450000
1.525136
1.474102
1.477764
1.532947
1.556337
1.568726
1.543900
1.543534
1.572933
1.582930
1.584153
1.582921
1.592516
1.599305
1.606301
1.603771
1.588157
1.584941
1.605528
1.600816
1.606069
1.419440
1.431434
1.451711
1.449815
1.465487
1.504088
1.469041
1.481759
1.484787
1.571506
1.484202
1.500339
1.492619
1.592200
1.602985
1.601888
1.566825
1.514249
1.619227
1.607891
1.595310
1.609302
1.610090
1.599689
1.608964
1.590824
1.566021
1.570115
1.582285
1.567881
1.546035
1.536413
1.541011
1.516467
1.538474
1.494000
1.499079
1.469609
1.531125
1.539993
1.536283
1.557294
1.564424
1.461515
1.437576
1.429820
1.389912
1.443708
1.441047
1.393403
1.404257
1.505752
1.465159
1.450399
1.471361
1.486428
1.436565
1.617594
1.599434
1.590876
1.595510
1.594191
1.590674
1.614364
1.611402
1.599200
1.616049
1.594138
1.606291
1.602729
1.596870
1.584070
1.485449
1.441913
1.382679
1.358662
1.511879
1.562255
1.475599
1.471874
1.492504
1.494303
1.503130
1.574185
1.595561
1.600582
1.559578
1.518175
1.474701
1.386507
1.413583
1.445789
1.551757
1.495386
1.547891
1.517812
1.497850
1.522824
1.507596
1.525601
1.522468
1.552590
1.517880
1.543397
1.542168
1.539575
1.552401
1.567406
1.572939
1.583617
1.577653
1.565532
1.537089
1.536359
1.532363
1.564471
1.464790
1.563993
1.573164
1.573266
1.556746
1.540225
1.522479
1.500349
1.526630
1.494108
1.539117
1.533856
1.544253
1.556077
1.572506
1.564646
1.550593
1.548587
1.550954
1.566009
1.570427
1.562452
1.556751
1.573128
1.435775
1.588735
1.581116
1.594364
1.591280
1.566233
1.582365
1.596344
1.605741
1.586885
1.615388
1.602721
1.610917
1.599625
1.587649
1.589865
1.582668
1.574896
1.568813
1.570332
1.582056
1.556820
1.546448
1.558450
1.514471
1.507974
1.528683
1.552306
1.553594
1.576372
1.586125
1.452261
1.438616
1.415231
1.437423
1.444814
1.465416
1.427772
1.476439
1.464758
1.477223
1.442933
1.430558
1.423125
1.557065
1.542433
1.532316
1.541954
1.484859
1.555989
1.553165
1.553899
1.451712
1.465510
1.456341
1.489235
1.481890
1.551929
1.513939
1.520326
1.501526
1.493463
1.475084
1.505393
1.503451
1.522126
1.514298
1.536352
1.531996
1.529042
1.542138
1.554758
1.566375
1.581440
1.579679
1.567512
1.555146
1.539509
1.542402
1.523517
1.453752
1.550957
1.504839
1.595278
1.447780
1.526358
1.549532
1.533831
1.561609
1.576730
1.574605
1.577840
1.590591
1.589474
1.584717
1.601602
1.579579
1.562657
1.584066
1.533688
1.566006
1.572295
1.589458
1.584000
1.560366
1.534913
1.501419
1.455909
1.460332
1.434364
1.558976
1.554758
1.578147
1.591051
1.568885
1.568916
1.537332
1.513462
1.489872
1.489467
1.470237
1.423928
1.446785
1.582190
1.565194
1.556730
1.558732
1.557293
1.564611
1.566308
1.574077
1.589062
1.586074
1.602106
1.587601
1.458475
1.436982
1.464739
1.468217
1.510975
1.517834
1.495701
1.484510
1.484209
1.508083
1.474098
1.454104
1.491574
1.486174
1.541067
1.552515
1.576204
1.581398
1.572988
1.568444
1.564336
1.569573
1.574424
1.574421
1.585385
1.578472
1.573830
1.548068
1.528808
1.508725
1.494280
1.457188
1.465454
1.448300
1.438723
1.403778
1.445289
1.480267
1.479539
1.503664
1.487056
1.535977
1.495179
1.502744
1.508125
1.507281
1.532963
1.503686
1.504572
1.495319
1.507718
1.523061
1.527543
1.544326
1.561429
1.423987
1.522783
1.489366
1.494501
1.514610
1.580357
1.482346
1.484687
1.445079
1.495418
1.485805
1.327961
1.304771
1.268621
1.296830
1.117337
1.118153
1.529983
1.659631
1.118111
1.146046
1.182430
1.046514
1.598678
1.577568
1.586164
1.269081
1.257809
1.259235
1.202413
1.198479
1.075990
1.102398
1.462953
1.426602
1.433269
1.493756
1.603778
1.620629
1.559081
1.555855
1.555534
1.590018
1.600535
1.622183
1.586953
1.582972
1.264127
1.254788
1.257640
1.233616
1.259263
1.278958
1.248907
1.287585
1.310432
1.369133
1.312315
1.365211
1.311853
1.350226
1.389957
1.558252
1.552870
1.567057
1.552718
1.527252
1.558132
1.554476
1.555441
1.539883
1.532215
1.533400
1.614804
1.596299
1.605678
1.572481
1.573499
1.572417
1.590059
1.586964
1.560706
1.583934
1.465826
1.431491
1.460496
1.579897
1.581397
1.585437
1.450074
1.439584
1.441313
1.424180
1.424888
1.439614
1.532643
1.504210
1.500661
1.283322
1.485763
1.529877
1.064855
1.022763
1.051502
1.378146
1.199499
1.517466
1.521527
1.527413
1.556026
1.481857
1.440806
1.328384
1.028346
0.897934
0.780890
0.768912
0.862755
1.152476
1.195430
1.196701
1.184340
1.246803
1.263637
1.047927
1.075087
1.190985
1.248913
1.248326
1.250112
0.960269
1.149294
0.964460
1.012181
0.901926
1.072366
1.227021
1.163866
1.259377
1.246242
1.163094
1.214590
1.126141
1.154250
1.008451
1.043502
1.012310
1.087879
0.916443
0.959910
1.155478
1.004690
0.988616
1.024802
1.012258
1.077278
1.016209
0.988317
1.081587
1.194439
1.067585
1.082471
0.990294
0.935405
0.973565
0.993049
1.092819
1.190334
1.218108
1.273515
1.314973
1.293766
1.178790
1.346538
1.354342
1.365216
1.381451
1.389186
1.396021
1.398925
1.395195
1.387143
1.360840
1.357793
1.358699
1.329097
1.323235
1.319640
1.305824
1.306263
1.243873
1.242319
1.296969
1.250362
1.093987
1.232971
1.337046
1.381356
1.396776
1.408284
1.405155
1.411474
1.414309
1.417154
1.420371
1.419862
1.419666
1.417016
1.412756
1.397874
1.387855
1.400446
1.391846
1.388927
1.328244
1.382727
1.345015
1.368363
1.305772
1.353400
1.285080
1.364368
1.210350
1.224903
1.345913
1.304587
1.346892
1.256425
1.306402
1.302142
1.278516
1.304075
1.315465
1.264774
1.267140
1.299801
1.278855
1.351184
1.349138
1.354447
1.338695
1.374406
1.352625
1.366066
1.372823
1.375011
1.369668
1.377323
1.343331
1.359622
1.344517
1.336003
1.335389
1.316681
1.319525
1.311314
1.309919
1.264812
1.310273
1.237237
1.239346
1.171928
1.178810
1.203807
1.184502
1.255931
1.109780
1.220018
1.245982
1.219678
1.281142
1.300747
1.247317
1.316548
1.322550
1.304194
1.341256
1.328539
0.820258
0.938961
0.837138
0.834175
0.978353
1.008402
1.008414
0.983931
1.032031
1.214831
1.171007
1.157438
0.828183
0.844551
0.939642
1.139511
1.157477
1.171069
1.163146
1.337677
1.293621
1.001398
0.882438
0.914779
1.199721
1.113475
1.165249
1.232167
1.344156
1.289152
1.263574
1.239231
1.196357
1.201140
1.295294
1.245104
1.224783
1.239840
0.885744
0.818680
1.166763
1.229154
1.270147
1.264124
1.304384
1.237352
1.154590
1.011894
1.298913
1.264748
1.290544
1.288297
1.279622
1.212987
1.105858
1.123426
1.142884
1.117091
1.264438
1.086466
1.153456
1.071442
1.204152
1.210185
1.159259
1.160230
1.253660
1.196357
0.964916
0.970374
0.891142
1.047983
1.172313
1.041004
0.947337
0.950777
1.115337
1.020398
1.137302
1.220640
1.194862
1.213836
1.129617
1.004855
0.923397
0.935255
0.953469
0.955461
1.117649
1.187515
1.272770
1.313588
1.329887
1.323142
1.257262
1.083536
0.835393
0.793761
0.807185
0.849994
1.026833
1.367221
1.368610
1.372431
1.371176
1.348402
1.356599
1.321293
1.237531
1.318760
1.377216
1.347544
1.374463
1.357820
1.336710
1.331859
1.285963
1.288983
1.309089
1.323474
1.289231
1.303929
1.292750
1.306230
1.343515
1.367170
1.365918
1.331210
1.382635
1.378646
1.386098
1.358809
1.395857
1.385077
1.361406
1.356938
1.363229
1.335133
1.337434
1.316045
1.329874
1.325030
1.301047
1.264358
1.265290
1.237593
1.222471
1.192605
1.207728
1.158626
1.185378
1.183773
1.124251
1.225373
1.215995
1.239910
1.282212
1.273621
1.300159
1.317566
1.336946
1.335912
1.364372
1.383796
1.388237
0.950294
1.060825
1.054977
1.171518
1.261420
1.141316
0.992267
0.911146
0.947351
1.166389
1.342451
1.342645
1.285859
1.230155
1.084186
1.145404
0.871937
0.946677
1.242114
1.191973
1.235279
1.296032
1.375651
1.353977
1.308144
1.311159
1.166454
1.188168
0.950595
1.323731
1.047141
1.121574
1.090318
1.164939
1.206248
1.113872
0.996508
0.914430
0.973028
1.052958
1.323559
1.348825
1.296576
1.083115
0.943334
0.932160
0.848279
1.019907
1.194720
1.370298
1.356970
1.396339
1.356166
1.337002
1.316977
1.275529
1.244863
1.193502
1.151526
1.217696
1.332292
1.241397
1.340383
1.324748
1.368769
1.383327
1.398174
1.402975
1.394851
1.391393
1.389823
1.393352
1.373936
1.375096
1.377492
1.386615
1.392438
1.398302
1.380284
1.390036
1.350933
1.345448
1.343227
1.316572
1.258551
1.299226
1.267207
1.253940
1.295676
1.268978
1.188200
1.338593
1.298111
1.305676
1.297750
1.303467
1.321245
1.308575
1.370622
1.313441
1.309426
1.226166
1.241179
1.215311
1.190994
1.237618
1.197512
1.172697
1.105011
1.072082
1.000531
0.937213
0.933335
1.052325
1.103357
1.129867
1.097329
1.069245
1.156440
1.128734
1.183250
1.175044
1.172900
1.168343
1.062419
0.989175
0.977447
0.963561
0.941709
1.091493
1.188528
1.201692
1.299376
1.342960
1.331173
1.334713
1.299315
1.236831
1.125012
0.903003
0.900277
1.132552
1.118704
1.355881
1.380724
1.387626
1.389056
1.389289
1.374933
1.357349
1.338841
1.332590
1.317826
1.272782
1.246152
1.180219
1.267307
1.197253
1.310356
1.247298
1.227412
0.987583
0.970282
1.014941
1.190137
1.189162
1.092520
1.110426
1.250183
1.298660
1.314261
1.374706
1.377738
1.372676
1.373080
1.380792
1.229691
1.272454
1.338459
1.334736
1.352042
1.357329
1.352049
1.298734
1.312287
1.320560
1.342404
1.310148
1.326206
1.318960
1.332712
1.339617
1.370449
1.367046
1.357491
1.386308
1.385400
1.391888
1.387013
1.391116
1.386395
1.401481
1.384028
1.389579
1.386249
1.373692
1.357055
1.368092
1.352783
1.336493
1.330828
1.321545
1.315739
1.284264
1.273864
1.271132
1.261846
1.236285
1.189366
1.200622
1.216081
1.175669
1.154984
1.167304
1.225667
1.237176
1.279092
1.297253
1.311577
1.325973
1.355904
1.365109
1.108520
1.208710
1.144923
1.109792
1.037608
1.068067
0.984968
1.018780
1.334114
1.341981
1.341693
1.249657
1.064972
0.958823
0.911060
1.049632
1.336720
1.373105
1.373100
1.375368
1.354721
1.310687
1.295717
1.244455
1.200854
1.239149
1.131355
1.316332
1.311205
1.251688
1.306246
1.340605
1.366685
1.366152
1.376817
1.379948
1.385543
1.377975
1.364448
1.380743
1.239374
1.132637
1.345680
1.380054
1.289415
1.250266
1.061956
1.187220
1.166380
1.207909
1.226475
1.261855
1.118294
1.097263
1.140366
1.164557
1.157949
0.983993
0.957201
0.941850
1.376417
1.295222
1.049026
1.098613
1.196088
1.171839
1.229213
1.228556
1.276473
1.174126
1.127181
1.054811
1.112508
1.155115
1.223695
0.904543
0.982771
0.974595
1.019030
1.081876
1.085616
1.100630
1.142638
1.207453
1.210735
1.237731
1.221020
1.116080
1.029580
1.003575
0.972974
0.858506
1.082119
1.186710
1.266965
1.244825
1.315178
1.355286
1.342626
1.328844
1.332725
1.293268
1.286921
1.262707
1.200013
1.376268
1.358244
1.394580
1.383301
1.351336
1.402638
1.386086
1.184045
1.353661
1.313253
1.330282
1.346324
1.337031
1.334911
1.339417
1.317088
1.315595
1.337069
1.338694
1.346573
1.364671
1.367912
1.366032
1.373805
1.390888
1.381938
1.383904
1.387957
1.401358
1.396389
1.401199
1.375569
1.397469
1.388399
1.382080
1.365443
1.364297
1.369095
1.364237
1.342483
1.338020
1.336393
1.316409
1.295316
1.264674
1.232063
1.242236
1.249920
1.206590
1.265126
1.191710
1.194330
1.220732
1.205305
1.221027
1.280020
1.305970
1.305216
1.305134
1.350895
1.373311
1.289458
1.291697
1.270145
1.289396
1.299055
1.322372
1.377604
1.376110
1.374017
1.367740
1.364470
1.352740
1.354865
1.326717
1.283053
1.229091
1.246292
1.264237
1.255886
1.245964
1.241708
1.079100
1.025448
0.986658
1.195153
1.246712
1.212619
1.209451
1.206494
1.215261
1.297404
1.242743
1.203074
1.230581
1.119103
1.225366
1.276504
1.318509
1.293329
1.221051
1.131190
0.970911
0.968748
0.994784
1.054124
1.186790
1.202778
1.292593
1.340408
1.360869
1.380392
1.362201
1.358257
1.334980
1.268145
1.254463
1.254249
1.205239
1.168470
1.154806
1.285648
1.254146
1.266320
1.231295
1.259225
1.267534
1.288566
1.365757
1.380982
1.384994
1.334895
1.340456
1.366732
1.346959
1.277680
1.365772
1.298629
1.263611
1.316101
1.342822
1.348596
1.353775
1.353546
1.351749
1.353139
1.347893
1.339867
1.351738
1.315664
1.316564
1.322235
1.337744
1.356233
1.355466
1.375165
1.370604
1.365406
1.371966
1.386859
1.385154
1.394499
1.392675
1.394864
1.401926
1.398173
1.213775
1.205597
1.271169
1.245614
1.198606
1.172004
1.228281
1.228003
1.311289
1.369092
1.376415
1.362535
1.343524
1.346740
1.318981
1.320827
1.308360
1.301352
1.267357
1.349905
1.362638
1.332753
1.327194
1.327391
1.338920
1.308187
1.319850
1.299937
1.269764
1.198347
1.251553
1.229505
1.231836
1.265674
1.052221
1.042783
1.093444
1.231113
1.249043
1.295079
1.300574
1.275134
1.282258
1.287552
1.357379
1.350250
1.364614
1.366126
1.347996
1.297295
1.169869
1.125549
1.169175
1.200220
1.222091
1.217723
1.229892
1.241159
1.185890
1.154924
1.103872
1.148764
1.084492
0.981436
0.977988
0.992908
1.009191
1.031118
1.040221
1.078964
1.137254
1.158764
1.168058
1.394745
1.398082
1.399576
1.384335
1.371774
1.381234
1.362273
1.355170
1.357277
1.344238
1.311828
1.273044
1.250129
1.264714
1.270473
1.274627
1.260997
1.196565
1.202685
1.247235
1.216805
1.265405
1.313909
1.323331
1.325046
1.315381
1.119283
1.074258
1.030652
0.993028
0.925832
1.084005
1.284531
1.162881
1.348384
1.343500
1.356498
1.353090
1.345705
1.341448
1.334280
1.324694
1.305034
1.323977
1.290583
1.290263
1.325980
1.326842
1.307971
1.317998
1.329689
1.350579
1.309800
1.349691
1.255304
1.185210
1.217825
1.183040
1.222851
1.244240
1.129660
1.083465
1.089483
1.184704
1.234020
1.289272
1.329234
1.334674
1.274774
1.262924
1.211834
1.237149
1.275143
1.301037
1.269479
1.214052
1.044409
1.015049
1.083483
1.115510
1.156054
1.170447
1.266700
1.258545
1.225342
1.266158
1.266978
1.360961
1.251833
1.368449
1.348502
1.249953
1.323254
1.332788
1.318200
1.356643
1.344544
1.343680
1.344241
1.359087
1.352286
1.353278
1.352489
1.351082
1.347827
1.324375
1.306612
1.310184
1.340454
1.341269
1.354802
1.356060
1.366694
1.363330
1.381901
1.365780
1.381488
1.377938
1.392148
1.396563
1.393893
1.384949
1.033457
1.184925
1.157980
1.222223
1.236864
1.279814
1.310480
1.329359
1.339583
1.348667
1.368675
1.362638
1.366853
1.366558
1.333488
1.305903
1.298441
1.281981
1.243969
1.390173
1.387026
1.380313
1.365905
1.381706
1.367771
1.363119
1.360850
1.360650
1.344068
1.353377
1.337364
1.320877
1.309097
1.296391
1.287611
1.290873
1.262530
1.263973
1.259421
1.206197
1.190947
1.224404
1.235827
1.274045
1.332028
1.356683
1.098487
1.059080
1.019839
0.957122
0.914614
0.968978
1.290035
1.295468
1.416753
1.403697
1.377957
1.363193
1.371020
1.362773
1.355839
1.353455
1.311165
1.308688
1.311365
1.299455
1.302207
1.008008
1.146812
1.195990
1.253688
1.227285
1.263138
1.254424
1.285839
1.288298
1.352439
1.366179
1.361934
1.359139
1.362888
1.354543
1.300291
1.269608
1.241202
1.258851
1.237755
1.216712
1.249032
1.273131
1.204076
1.155630
1.224978
1.254090
1.249312
1.246090
1.207252
1.196733
1.182391
1.217735
1.182248
1.146664
1.138255
1.096474
0.974071
0.937707
0.973402
0.965956
1.001114
1.006075
1.034154
1.080201
1.028059
1.337683
1.321623
1.278393
1.213494
1.293914
1.221205
1.230314
1.221316
1.160284
1.183212
1.150395
1.142173
1.356033
1.353470
1.358874
1.355321
1.350860
1.349918
1.356562
1.328287
1.310030
1.311159
1.312014
1.322602
1.340236
1.340980
1.352752
1.365794
1.362748
1.363838
1.363080
1.353973
1.356647
1.378395
1.378048
1.388007
1.385719
1.391191
1.389016
1.385902
1.373529
1.386686
1.378223
1.373620
1.360364
1.352967
1.346877
1.339941
1.322416
1.303180
1.301092
1.316727
1.353000
1.329003
1.303963
1.274650
1.353649
1.323912
1.320434
1.298042
1.286017
1.310902
1.343830
1.345254
1.324457
1.339178
1.321239
1.325096
1.315539
1.282729
1.275974
1.273986
1.274153
1.247154
1.219914
1.178393
1.210359
1.251397
1.229324
1.323793
1.054573
1.221167
1.266486
1.293463
1.327162
1.347257
1.350872
1.285775
1.241160
1.237080
1.258199
1.271171
1.293296
1.239591
1.142854
1.353079
1.369002
1.349539
1.332334
1.232821
1.245518
1.286459
0.945822
0.951613
0.971493
0.981966
0.986338
1.042242
1.296451
1.275318
1.359043
1.363141
1.003649
0.955376
0.938722
0.977832
1.191196
1.267297
1.373494
1.410585
1.399727
1.380259
1.374748
1.378827
1.376102
1.362911
1.358700
1.334894
1.317443
1.302223
1.278559
1.283982
1.353006
1.345569
1.359300
1.343526
1.339802
1.344470
1.320754
1.344108
1.323893
1.295835
1.252109
1.232506
1.190119
1.259039
1.210783
1.207854
1.210952
1.207376
1.223972
1.183555
1.287947
1.275705
1.376247
1.356903
1.350265
1.339475
1.335935
1.360855
1.367498
1.367423
1.386773
1.386646
1.391835
1.385279
1.385034
1.373683
1.385461
1.378208
1.370375
1.355117
1.350904
1.343545
1.351126
1.330455
1.330034
1.337478
1.337193
1.332844
1.327033
1.342030
1.359966
1.365891
1.376656
1.393412
1.380552
1.392198
1.392994
1.369675
1.356396
1.390274
1.362844
1.366016
1.362461
1.352047
1.344800
1.344126
1.333309
1.331178
1.278837
1.306770
1.279987
1.266454
1.263534
1.232310
1.198273
1.215279
1.159918
1.181191
1.147141
1.299020
1.251497
1.202589
1.231413
1.243579
1.264079
1.272700
1.246824
1.204547
1.208203
1.231992
1.210867
1.169225
1.241732
1.289303
1.287968
1.254317
1.280242
1.251119
1.285909
1.290453
1.287011
1.276032
1.233634
1.225464
1.208450
1.191280
1.167477
1.141842
1.076850
1.040153
0.991868
1.223731
1.188770
1.236560
1.285842
1.324819
1.338887
1.338152
1.341146
0.969184
0.963597
0.957344
1.011341
1.152186
1.217314
1.337398
1.367904
1.393880
1.400348
1.393392
1.386362
1.381522
1.379832
1.374809
1.360370
1.340652
1.325973
1.298860
1.289930
1.293404
1.270166
1.352855
1.263224
1.241500
1.249578
1.293488
1.252957
1.196882
1.149826
1.181356
1.217077
0.972425
0.965358
0.958841
1.220579
1.137148
1.209610
1.191331
1.404635
1.365237
1.383458
1.366989
1.378986
1.353407
1.369404
1.359883
1.353789
1.348841
1.344968
1.350478
1.334812
1.339147
1.142997
1.111876
1.129306
1.153952
1.164273
1.171399
1.082751
1.175225
1.252093
1.259661
1.290241
1.321176
1.342464
1.346496
1.330992
1.333218
1.348558
1.361062
1.353326
1.346399
1.340331
1.318550
0.956855
0.989506
1.037104
1.138000
1.228428
1.305208
1.344398
1.362218
1.391974
1.382751
1.386456
1.389921
1.381721
1.380514
1.370862
1.378232
1.343800
1.332998
1.295476
1.283907
1.275217
1.269033
1.283750
1.302900
1.314676
1.333586
1.347089
1.284175
1.301711
1.281516
1.271906
1.218683
1.246907
1.170195
1.097205
1.069639
1.022047
1.257680
1.268975
1.280758
1.276682
1.275930
1.250461
1.232156
1.240835
1.262481
1.246562
0.986858
1.273229
1.274369
1.168785
1.217862
1.207396
1.175550
1.104527
1.195878
1.163468
1.263626
1.242504
1.285216
1.311975
1.327412
1.322298
1.321497
1.349968
1.355088
1.341920
1.296905
1.293768
1.352694
1.304422
1.329479
1.311685
1.317610
1.328423
1.324929
1.314303
1.311334
1.333570
1.353368
1.362866
1.361705
1.377648
1.382372
1.347814
1.339104
1.348861
1.343797
1.344135
1.272868
1.292896
1.271597
1.232843
1.251306
1.016558
1.082608
1.159134
1.224273
1.281514
1.324722
1.376844
1.389328
1.386027
1.381721
1.389676
1.379282
1.372914
1.369095
1.367606
1.323635
1.305352
1.271260
1.249218
1.347499
1.349538
1.348703
1.342750
1.331305
1.308083
1.275222
1.279519
1.267487
1.264359
1.276732
1.284835
1.272254
1.066458
1.217608
1.233147
1.214548
1.219848
1.159645
1.236516
1.318308
1.313810
1.299231
1.344011
1.340218
1.297470
1.303862
1.315405
1.318751
1.288599
1.299274
1.312221
1.312230
1.334516
1.314658
1.333994
1.348344
1.352042
1.363057
1.378740
1.376022
1.365279
1.373929
1.361138
1.367650
1.349271
1.356672
1.361360
1.346983
1.260133
1.280965
1.358599
1.350988
1.351254
1.349005
1.322192
1.314556
1.178779
1.278657
1.277743
1.294139
1.291685
1.298378
1.313653
1.288741
1.280929
1.259227
1.245084
1.212250
1.190731
1.104272
1.157368
1.215529
1.328443
1.357238
1.372653
1.376659
1.369258
1.266373
1.252645
1.306392
1.284658
1.313190
1.275657
1.336660
1.312159
1.301085
1.294156
1.317591
1.294492
1.311283
1.325309
1.327179
1.324068
1.319126
1.287094
1.259029
1.229856
1.199223
1.152252
1.349561
1.352652
1.336379
1.335946
1.322129
1.320717
1.309825
1.325036
1.303354
1.316208
1.349547
1.344888
1.353227
1.333524
1.325779
1.292978
1.252784
1.205548
1.312056
1.331773
1.345488
1.169630
1.357827
1.349145
1.340137
1.378283
1.379550
1.341076
1.367534
1.315966
1.317757
1.299417
1.276825
1.310880
1.291417
1.285940
1.325762
1.271393
1.320690
1.363108
1.357154
1.363977
1.363760
1.377694
1.357227
1.371365
1.348824
1.357812
1.348591
1.362132
1.351653
1.351512
1.344519
1.346287
1.350732
1.337324
1.308784
1.339948
1.324585
1.342660
1.377307
1.344296
1.371840
1.373111
1.369982
1.358459
1.360681
1.360472
1.337419
1.334969
1.331362
1.316516
1.373623
1.353669
1.146156
1.172801
1.121775
1.147913
1.146247
1.173052
1.131333
1.135009
1.172109
1.130089
1.254856
1.336426
1.256242
1.348251
1.342879
1.269328
1.328323
1.233556
1.281936
1.184891
1.283960
1.323375
1.314343
1.335229
1.367777
1.341134
1.139323
1.100324
1.124876
1.159835
1.357006
1.335330
1.369648
1.294723
1.321728
1.287997
1.303552
1.321167
1.313340
1.357902
1.350417
1.334477
1.300600
1.255494
1.277928
1.289385
1.250782
1.273636
1.265438
1.339326
1.342840
1.365872
1.341562
1.320416
1.306845
1.186817
1.305875
1.340399
1.293618
1.329516
1.348033
1.364862
1.370570
1.349180
1.356948
1.333177
1.321143
1.123005
1.189054
1.181270
1.027718
1.113686
1.163244
1.070871
1.117486
1.299535
1.311443
1.226487
1.223392
1.283459
1.179099
1.167354
1.329245
1.360439
1.323141
1.143274
0.922457
1.057108
1.203425
0.923182
1.019661
1.228636
1.279036
1.334450
1.357138
1.392962
1.409257
1.408497
1.420855
1.405606
1.414895
1.369795
1.376341
1.383324
1.362181
1.347006
1.326406
1.315260
1.261514
1.329443
1.284272
1.205443
0.981925
0.985957
0.893921
1.074742
1.213813
1.326677
1.304569
1.238941
1.263746
0.991993
1.178830
1.211000
1.312579
1.180868
1.291016
1.158677
1.034859
1.213406
1.129670
1.053411
1.061804
1.128205
0.933439
1.129634
1.109972
1.190151
0.904528
1.010857
1.037021
1.262809
1.308751
1.350462
1.232350
1.211035
1.063062
1.148841
1.118535
1.105990
1.158815
1.180057
1.198999
1.219392
1.303924
1.316006
1.289077
1.297091
1.209477
1.150058
1.036844
0.978211
1.027021
1.395395
1.349639
1.341480
1.314355
1.333603
1.312861
1.311416
1.302932
1.305866
1.310734
1.288150
1.374413
1.286174
1.320394
1.346149
1.296935
1.296029
1.348461
1.292290
1.327280
1.304640
1.351160
1.338174
1.346217
1.347804
1.359955
1.350339
1.358101
1.344831
1.318940
1.337780
1.274597
1.290341
1.345133
1.308812
1.296598
1.351196
1.240554
1.325488
1.355653
1.307011
1.342000
1.337287
1.358164
1.323410
1.365928
1.325249
1.000132
1.038750
1.042976
1.072419
1.083026
1.176052
1.120768
1.168964
1.281760
1.306815
1.356417
1.380543
1.389396
1.417057
0.978459
1.104731
1.227097
1.314564
1.315242
1.344749
1.339854
1.324252
1.158011
1.244305
1.240331
1.131813
1.191460
1.287862
1.246327
1.278159
1.279522
1.329367
1.133230
1.215230
1.029017
1.264537
1.327576
1.329502
1.232257
1.032996
1.314736
1.271225
1.231800
1.084990
1.104423
1.105491
1.228682
1.364868
1.282576
1.189195
1.105525
1.135488
1.245600
1.271072
1.189434
1.369218
1.262788
1.169596
1.283591
1.269324
1.121103
1.201988
1.158138
1.178922
0.939639
1.194352
1.128330
1.119369
1.140198
1.219760
1.252187
1.323683
1.345015
1.317928
1.211073
1.202780
1.142776
1.092162
1.187907
1.134185
1.156788
1.234945
1.237028
1.321155
1.267529
1.323649
1.283781
1.189119
1.034086
0.981740
1.244004
1.304446
1.151963
0.964716
0.880356
1.178350
1.399406
1.389839
1.348406
1.334551
1.318051
1.314261
1.318212
1.324269
1.322255
1.358519
1.344501
1.329995
1.336208
1.336932
1.301258
1.305868
1.310587
1.332166
1.311779
1.327156
1.347138
1.371421
1.381618
1.382359
1.394615
1.391852
1.384612
1.374723
1.342021
1.345707
1.316175
1.267136
1.347065
1.309805
1.315186
1.353598
1.294392
1.359210
1.343755
1.323368
1.318214
1.309054
1.262432
1.335381
1.326068
1.337470
1.392539
1.386483
1.403280
1.420257
1.412368
1.422528
1.411446
1.402023
1.391299
1.379452
1.361357
1.332088
1.337453
1.330072
1.315360
1.330610
1.294349
1.332899
0.968125
1.111889
1.072879
1.163110
1.195662
1.225335
1.251177
1.319812
1.361517
1.374903
1.398162
1.411915
1.228567
1.211999
1.318756
1.211506
1.259146
1.291023
1.336709
1.307236
1.113641
1.124518
1.078335
1.102666
1.220185
1.360791
1.443179
1.380641
1.303338
1.180267
1.207457
1.212162
1.130873
0.958031
1.096597
1.308708
1.365487
1.382426
1.419707
1.361060
1.374267
1.256037
1.077227
0.984458
1.179312
1.144627
1.311002
1.381798
1.284086
1.253511
1.288825
1.118631
1.168769
1.087134
1.018075
1.169262
1.120537
1.239368
1.349046
1.321472
1.302622
1.253548
1.226463
1.200231
1.196785
1.079187
1.080328
1.186578
1.238156
1.349751
1.321698
1.383363
1.340229
1.297619
1.241466
1.134615
1.218327
1.211266
1.240147
1.292477
1.286349
1.317681
1.346312
1.376019
1.386399
1.393292
1.402936
1.020009
1.127557
1.151324
1.251708
1.358273
1.318001
1.304194
1.243073
1.058298
1.176815
1.194026
1.219387
1.193655
1.353568
1.387577
1.393300
1.390486
1.406978
1.399598
1.413566
1.409121
1.374921
1.381238
1.361957
1.372708
1.333270
1.283125
1.373088
1.315005
1.335632
1.322224
1.360699
1.321222
1.314273
1.305112
1.305235
1.313804
1.312707
1.332670
1.325408
1.341769
1.326348
1.343070
1.312524
1.326809
1.328621
1.345658
1.315164
1.356803
1.359508
1.388245
1.400706
1.404467
1.414356
1.411999
1.407320
1.385220
1.354909
1.347942
1.323605
1.325736
1.328481
1.307805
1.303622
1.319326
1.311787
1.339478
1.335651
1.295105
1.341015
1.347701
1.334615
1.362339
1.224671
1.214293
1.298375
1.355744
1.324390
1.266249
1.186654
1.142628
1.190970
1.214992
1.217596
1.319534
1.385412
1.431218
1.423591
1.379295
1.160646
1.196673
1.223348
1.180534
1.293698
1.066098
1.111629
1.245548
1.349783
1.367852
1.380267
1.411261
1.368689
1.268368
1.296223
1.270747
1.060714
1.165015
1.090356
1.162294
1.160330
1.267812
1.172433
1.208813
1.220454
1.273745
1.137584
1.196712
1.097114
1.072945
1.152247
1.193971
1.320404
1.308061
1.326220
1.323512
1.285360
1.309085
1.253223
1.175928
1.120672
1.213109
1.264502
1.393040
1.385132
1.377152
1.354806
1.320275
1.265048
1.220842
1.268259
1.260914
1.287127
1.297049
1.323254
1.330650
1.336783
1.353597
1.372798
1.388995
1.395446
1.365698
1.384304
1.385877
1.382512
1.381092
1.384848
1.377693
1.328879
1.372070
1.340412
1.348174
1.344150
1.330520
1.338667
1.353303
1.264095
1.242804
1.169388
1.188330
1.293967
1.275557
1.247215
1.191800
1.114333
1.139457
1.171434
1.267073
1.242708
1.333301
1.320623
1.307149
1.325743
1.333165
1.335495
1.327415
1.352423
1.357914
1.351690
1.331499
1.356544
1.333465
1.342625
1.346354
1.337600
1.347736
1.371549
1.395611
1.412580
1.416072
1.424316
1.423988
1.412189
1.394051
1.377502
1.347859
1.330295
1.320292
1.309808
1.354183
1.303553
1.324494
1.323853
1.358592
1.335026
1.332277
1.345159
1.365920
1.363162
1.182793
1.223432
1.303018
1.259963
1.224913
1.225331
1.221057
1.214017
1.291572
1.283771
1.334743
1.385208
1.417132
1.433031
1.391765
1.382301
1.300958
1.200443
1.143179
1.138128
1.029883
1.101689
1.132469
1.104723
1.283199
1.356054
1.383077
1.364837
1.397805
1.408053
1.264922
1.174086
1.159712
1.182867
1.397601
1.380458
1.039571
1.108104
1.058601
1.166288
1.290921
1.360405
1.386417
1.390500
1.364127
1.283260
1.198506
1.134731
1.005804
0.930973
0.983055
1.101429
1.055823
1.109795
1.192888
1.189548
1.252972
1.224211
1.199092
1.225574
1.148053
1.089892
1.154415
1.207185
1.295646
1.305349
1.312426
1.343704
1.295813
1.278058
1.285584
1.247735
1.169105
1.167861
1.205038
1.251485
1.337462
1.353040
1.390158
1.392387
1.391815
1.380474
1.364237
1.336359
1.291580
1.286242
1.265339
1.276543
1.283425
1.313338
1.317836
1.329733
1.338317
1.342247
1.360264
1.383871
1.386263
1.378578
1.368187
1.381008
1.370215
1.336247
1.365274
1.340711
1.367430
1.337401
1.332921
1.309490
1.287322
1.248266
1.213834
1.216816
1.245885
1.267559
1.261096
1.272555
1.270864
1.254130
1.177415
1.147277
1.168505
1.307937
1.308319
1.303280
1.319279
1.323906
1.342535
1.329458
1.352480
1.389023
1.349685
1.361429
1.331838
1.365674
1.351012
1.343937
1.350113
1.354881
1.352735
1.396543
1.405869
1.424473
1.429471
1.420433
1.418901
1.379914
1.363891
1.359846
1.354449
1.331038
1.335600
1.308023
1.314055
1.326235
1.344970
1.343402
1.314915
1.340461
1.335065
1.370084
1.248493
1.228175
1.302302
1.301332
1.249536
1.165897
1.155326
1.190717
1.198444
1.263885
1.291213
1.298128
1.316692
1.308500
1.302422
1.317792
1.285371
1.204277
1.178237
1.168862
1.212070
1.260886
1.303162
1.319281
1.356619
1.389841
1.396120
1.398085
1.376664
1.365769
1.335273
1.315257
1.370253
1.388455
1.307887
1.185873
1.141306
1.161905
1.332608
1.367114
1.343046
1.236084
1.138630
1.180151
1.258386
1.352658
1.355433
1.352187
1.368617
1.347053
1.304569
1.250278
1.266413
1.231815
1.098757
0.991065
0.963500
1.414329
1.377694
1.323246
1.321746
1.301691
1.292154
1.311834
1.299623
1.308761
1.294895
1.369933
1.370378
1.363074
1.349190
1.349641
1.352006
1.347651
1.333143
1.329953
1.330223
1.312699
1.319686
1.300609
1.281344
1.259998
1.258617
1.255393
1.252414
1.250672
1.252841
0.976771
1.083178
1.139571
1.142448
1.211491
1.314179
1.325938
1.334052
1.347668
1.357654
1.344935
1.377848
1.359448
1.346876
1.341459
1.351739
1.342680
1.363685
1.349732
1.332550
1.349179
1.399080
1.413658
1.377402
1.391306
1.412591
1.423219
1.370868
1.349918
1.348715
1.363231
1.328561
1.341522
1.339909
1.310398
1.310699
1.371902
1.353895
1.315579
1.340384
1.363600
1.247458
1.250832
1.295245
1.263721
1.348053
1.339045
1.368623
1.355173
1.359388
1.338105
1.352585
1.350707
1.338331
1.332197
1.321228
1.316362
1.303145
1.298059
1.271981
1.277332
1.272021
1.152562
1.158869
1.121978
1.310953
1.311949
1.308705
1.294419
1.279888
1.235964
1.226998
1.229622
1.248773
1.279761
1.304830
1.321152
1.337318
1.355937
1.378323
1.396786
1.388257
1.375044
1.369086
1.253340
1.268453
1.284153
1.288471
1.268043
0.997049
1.075154
1.091891
1.376556
1.398529
1.411850
1.401408
1.381649
1.413960
1.389232
1.334861
1.237143
1.104158
1.221141
1.347730
1.201939
1.347117
1.353720
1.243009
1.235966
1.288129
1.329393
1.337475
1.342546
1.360517
1.345905
1.315943
1.289476
1.260162
1.250126
1.216173
1.134957
1.147130
1.256397
1.316843
1.311360
1.338391
1.351627
1.356448
1.360822
1.379501
1.368278
1.367959
1.336282
1.358349
1.347653
1.365373
1.344362
1.347910
1.318571
1.387302
1.387248
1.365084
1.363625
1.384486
1.400308
1.354646
1.332268
1.341856
1.358351
1.340323
1.327811
1.352320
1.322200
1.318406
1.360572
1.351798
1.327244
1.337853
1.368707
1.347270
1.347847
1.345201
1.310051
1.283504
1.275837
1.242026
1.289775
1.297480
1.292248
1.293932
1.271162
1.255167
1.252071
1.267197
1.291618
1.314829
1.332181
1.335900
1.336107
1.348077
1.360774
1.381757
1.389514
1.396916
1.382342
1.385677
1.369815
1.361986
1.352864
1.349966
1.303031
1.308749
1.399432
1.405566
1.402456
1.378622
1.404999
1.406080
1.352863
1.274967
1.068378
1.158981
1.142058
1.397409
1.309527
1.135439
1.273956
1.187729
1.132359
1.192881
1.276329
1.179467
1.317932
1.257942
1.265695
1.322527
1.346082
1.340230
1.368058
1.374899
1.332589
1.296093
1.357757
1.359632
1.341697
1.341758
1.367837
1.360465
1.351274
1.318043
1.368340
1.352679
1.363960
1.324267
1.356859
1.315169
1.364082
1.379626
1.363253
1.342881
1.351992
1.373387
1.356290
1.319790
1.361607
1.347747
1.361322
1.330986
1.350478
1.308533
1.336169
1.348178
1.359228
1.334195
1.355358
1.344873
1.343258
1.334579
1.322166
1.310538
1.300474
1.307260
1.323661
1.333691
1.325596
1.313044
1.332872
1.334950
1.304822
1.286103
1.259318
1.253352
1.291786
1.313515
1.262810
1.282392
1.288139
1.302352
1.316762
1.332859
1.344905
1.351174
1.366226
1.344241
1.350513
1.351793
1.364160
1.374525
1.390846
1.385140
1.382580
1.369386
1.356425
1.364047
1.366055
1.254410
1.266692
1.358616
1.357737
1.360014
1.367900
1.356428
1.340304
1.317019
1.359097
1.348742
1.359129
1.319446
1.325500
1.340457
1.376182
1.316421
1.332781
1.344301
1.293233
1.353337
1.369396
1.329406
1.344982
1.347385
1.365745
1.354218
1.354892
1.331035
1.322761
1.335150
1.352955
1.347747
1.336418
1.346907
1.363183
1.348912
1.358381
1.363067
1.365475
1.345176
1.347309
1.325117
1.319524
1.326232
1.331777
1.338244
1.363043
1.348696
1.332686
1.343317
1.370705
1.356699
1.345891
1.365339
1.368373
1.389222
1.384229
1.385787
1.385651
1.380373
1.352400
1.346151
1.342855
1.337514
1.352565
1.369969
1.355300
1.357396
1.354381
1.379282
1.389608
1.399556
1.399189
1.382477
1.368453
1.350229
1.206744
1.315947
1.142463
1.153565
1.189804
1.140130
1.293446
1.307891
1.260157
1.283642
1.289992
1.303167
1.323509
1.341579
1.335289
1.321823
1.348771
1.355733
1.349479
1.384627
1.358631
1.370527
1.363391
1.350008
1.328624
1.362872
1.360607
1.347074
1.322680
1.361095
1.332475
1.388786
1.366522
1.307059
1.314381
1.384924
1.384664
1.376810
1.376653
1.347165
1.331985
1.368095
1.365950
1.348335
1.359225
1.337925
1.355110
1.350412
1.343509
1.330420
1.345591
1.382696
1.360728
1.359068
1.354885
1.357609
1.349093
1.373367
1.368632
1.341101
1.327914
1.341212
1.354211
1.366191
1.369007
1.269652
1.285690
1.324462
1.407242
1.320530
1.336377
1.412736
1.352748
1.380405
1.382677
1.352815
1.358072
1.336131
1.347809
1.359260
1.362587
1.333582
1.362642
1.373823
1.377435
1.346407
1.337028
1.382153
1.388197
1.385025
1.379620
1.363756
1.320013
1.219883
1.088842
1.244085
1.208917
1.327323
1.347206
1.365402
1.368878
1.371670
1.347228
1.366841
1.355667
1.374005
1.367009
1.385685
1.177590
1.231083
1.390572
1.283004
1.312327
1.318349
1.350611
1.347914
1.388474
1.380835
1.361909
1.363027
1.349155
1.368222
1.349538
1.364077
1.398793
1.390417
1.279544
1.261337
1.323883
1.332047
1.327559
1.325767
1.346455
1.354351
1.352944
1.354538
1.331529
1.335546
1.290694
1.328593
1.338013
1.350215
1.334693
1.325692
1.341124
1.342870
1.350780
1.358161
1.351321
1.359464
1.334205
1.346630
1.366889
1.388091
1.352812
1.364425
1.360020
1.365647
1.344202
1.377356
1.376053
1.344457
1.365469
1.362063
1.380867
1.072835
1.221908
1.280139
1.300693
1.386083
1.423120
1.410233
1.416884
1.420190
1.416305
1.278388
1.261501
1.201095
1.199292
1.383494
1.361625
1.311634
1.355594
1.182711
1.290022
1.357753
1.362564
1.353609
1.353363
1.359776
1.078413
1.185108
1.281568
1.292077
SCALARS V33_SP1(MPa) float 1
LOOKUP_TABLE default
1.157819
1.183545
1.300958
1.185899
0.780263
1.139652
1.213596
1.328541
1.240981
1.036500
1.198931
1.054237
1.147589
0.998574
0.894969
0.942644
1.046075
1.179496
1.113921
1.143085
1.314440
1.228301
1.131390
1.054226
1.196633
1.207680
1.217371
1.249003
1.268346
1.294637
1.056174
1.107911
1.152192
1.049256
0.889155
0.868605
0.845774
0.912573
0.790806
0.819990
0.895479
0.834456
0.775779
0.750289
0.683945
0.924763
1.168130
0.946894
0.770759
0.889113
0.948267
0.663037
1.263331
1.056746
0.886615
0.965795
0.933269
0.803576
0.741509
0.962475
0.961779
0.707762
1.114378
0.789637
0.742457
1.262206
1.141773
0.625997
0.914087
0.925010
1.011701
1.116096
1.047030
1.001734
0.936254
1.097459
1.133005
1.077103
0.841624
0.957520
0.748093
0.791586
0.898344
1.281393
0.932321
1.242143
1.300801
1.298033
1.172936
1.139328
1.016477
1.259517
1.129526
1.195152
1.010305
1.059273
0.957973
1.221118
1.182122
0.795379
1.051691
1.037699
1.002035
0.802027
0.775748
0.913979
0.820139
0.825066
0.801200
0.775216
0.778759
0.768663
0.812118
0.766183
0.805888
0.774445
0.766577
0.778489
0.750903
0.821749
0.829911
1.164500
1.064908
0.855634
0.885294
0.836931
0.932364
0.883127
0.986536
0.978802
1.053074
1.068853
0.907575
0.811732
0.880267
0.982642
1.043686
0.883283
0.796114
0.948848
0.915656
1.170945
1.201119
1.130797
1.111418
1.162872
1.207296
1.089134
1.219368
0.999665
0.968707
0.898483
1.137869
0.959247
1.244065
1.321589
1.318436
1.228754
1.326505
1.035262
1.099589
1.277179
1.138398
1.154877
1.125739
1.013978
1.031576
0.941485
1.153318
1.180025
1.136550
1.118439
1.147058
1.087519
1.142389
1.001679
1.057123
1.024619
1.108495
1.200972
1.268160
1.322032
1.383252
1.406400
1.410216
1.404511
1.288351
1.107433
1.024564
0.974118
0.933946
0.869026
0.815466
0.714750
0.775348
0.839155
0.734085
0.705634
0.786644
0.728719
0.918198
0.976674
0.799255
0.925022
0.841088
1.004206
1.037684
1.208650
0.950660
0.854240
0.885975
0.968655
0.893996
0.926741
0.688170
0.783195
0.923339
1.225488
0.961176
1.257156
1.017460
0.850320
1.019166
1.028303
0.954415
0.706539
0.954284
1.103542
0.985205
0.929949
0.788717
0.795558
0.891776
0.815823
0.867829
1.125298
1.517870
1.311242
1.284349
1.102805
1.244452
1.218267
1.171173
1.074113
1.107309
1.179257
1.316927
1.390320
1.210349
1.031297
0.890387
0.744227
1.360520
1.143536
1.309530
1.092095
0.819011
0.783672
0.813859
0.845130
0.809335
0.756918
0.756910
0.774889
0.752372
0.756577
0.794989
0.756575
0.729571
0.748018
0.765675
0.758276
0.833986
0.784500
0.983027
1.046588
0.911177
0.943674
0.956196
0.977076
1.087719
1.028793
0.876673
0.807103
0.947192
0.866841
0.773481
0.811413
0.910554
0.896623
0.818211
0.770188
0.808520
0.826407
0.876216
1.094147
1.125611
1.027703
1.151642
1.151817
1.179144
1.252592
1.060898
0.906911
0.930519
0.894798
0.911132
1.206084
1.378284
1.492116
1.108221
1.305599
1.078916
1.004610
0.943040
1.052265
1.044017
0.986249
0.932761
0.885894
1.034572
0.985154
1.011167
1.001264
1.020509
0.974043
1.010732
0.958210
0.887387
0.889841
1.012318
1.004640
1.080093
1.125694
1.251468
1.314352
1.398069
1.153240
1.346456
1.152973
0.946226
0.871025
0.774160
0.711549
0.659182
0.772867
0.749670
0.606588
0.653621
0.666367
0.653904
1.141963
1.002879
0.925721
1.039076
1.006024
0.774882
0.793498
1.179261
0.820387
0.786235
0.909509
0.741444
0.589231
0.997947
1.025858
0.811226
0.729178
0.694120
0.858697
0.757456
0.714349
0.785250
0.816634
0.745633
0.701489
0.761175
0.694002
0.870872
0.823496
0.781242
0.791915
0.995751
1.392726
1.522572
1.408070
1.279506
1.073436
1.046279
0.975472
0.843610
1.140617
1.049254
1.286785
1.030909
0.900200
0.857781
0.998461
1.347705
1.349206
1.187130
0.993425
0.836486
0.823003
0.784463
0.788103
0.776552
0.763259
0.743880
0.716906
0.728392
0.721361
0.721284
0.702974
0.732889
0.754376
0.801879
0.776080
0.794730
0.817709
0.878367
0.918258
0.955901
0.998002
0.944781
0.948926
0.891554
0.754268
0.755853
0.859988
0.788001
0.766256
0.765185
0.746074
0.764522
0.766664
0.760231
0.796942
0.788328
0.737567
0.851792
0.978879
0.898992
0.989080
0.950913
0.922126
0.837738
0.784647
0.787179
0.769807
0.788478
0.887144
1.190066
1.164781
1.453406
1.208843
1.020281
1.048998
0.956509
0.913774
0.868667
0.931756
0.865987
0.903288
0.846958
1.124755
1.065192
1.099927
1.000765
0.903110
0.886501
0.796874
0.837730
1.066810
1.213368
1.100317
1.260605
0.640263
0.625985
0.730499
1.256634
1.189415
0.816052
0.669944
0.879288
0.960562
0.735642
0.721906
0.750657
0.769923
0.706109
0.673463
0.651198
0.648301
0.640136
0.626019
0.619671
0.615146
0.607964
0.607561
0.600770
0.592543
0.594892
0.659443
0.642914
0.659203
0.625042
0.703202
0.647652
0.667188
0.645920
0.659151
0.679474
0.659493
0.722230
0.692468
0.691107
0.731704
0.701789
0.693954
0.733752
0.692155
0.696146
0.704614
0.672338
0.715997
0.689309
0.714770
0.765845
0.703090
0.702701
0.691609
0.736899
0.727546
0.690295
0.719602
0.640660
0.637084
0.646221
0.652359
0.652056
0.641807
0.706863
0.676171
0.687848
0.671709
0.667235
0.646569
0.641114
0.634011
0.661572
0.642040
0.679115
0.684116
0.663697
0.650665
0.646859
0.651135
0.632293
0.627668
0.645249
0.662878
0.657420
0.657900
0.673516
0.659667
0.651559
0.678707
0.681416
0.672982
0.697184
0.645759
0.624572
0.619492
0.619303
0.636049
0.617869
0.640755
0.655785
0.623409
0.648263
0.654067
0.642024
0.658042
0.713200
0.696802
0.683431
0.707785
0.658198
0.687802
0.718412
0.678701
0.688895
0.719594
0.677156
0.667182
0.703141
0.650162
0.654715
0.688619
0.678652
0.637298
0.687386
0.661797
0.662063
0.740107
0.690145
0.667701
0.711723
0.690687
0.711175
0.764461
0.666730
0.692447
0.750310
0.645158
0.669947
0.718649
0.621265
0.670116
0.668802
0.659982
1.076622
0.750957
0.858726
0.952733
0.928393
0.841256
0.806870
0.754976
0.786496
0.733784
0.735455
0.968636
0.777821
0.870128
0.972875
1.094856
1.103242
1.187438
1.339524
1.406180
1.318047
1.173134
1.313967
1.368335
1.228833
1.089788
1.354122
1.002658
0.901207
0.825825
0.852545
0.773377
0.770198
0.793656
0.912566
0.916148
0.941377
0.863337
1.100308
1.245206
0.629842
0.668066
0.680097
0.673860
0.670574
0.670734
0.663957
0.659285
0.649076
0.638458
0.629221
0.618963
0.616305
0.609380
0.604249
0.617991
0.782789
0.747086
0.782986
0.837527
0.937754
0.884160
0.793807
0.715129
0.629303
0.646534
0.634071
0.931057
0.803476
1.468909
1.480614
0.779097
0.757139
1.008345
0.937271
0.630578
0.624310
0.634262
0.644368
0.636492
0.643917
0.656546
0.680800
0.697252
0.716081
0.713625
0.723347
0.739822
0.716279
0.736751
0.729615
0.720602
0.715106
0.685352
0.697155
0.701211
0.697752
0.707751
0.715128
0.723543
0.704818
0.690466
0.706362
0.697332
0.677839
0.679658
0.651131
0.613706
0.622962
0.621640
0.618590
0.637941
0.615833
0.681685
0.654476
0.648286
0.675237
0.666126
0.650900
0.660692
0.666548
0.659559
0.653120
0.642620
0.648077
0.654675
0.646240
0.643491
0.660778
0.663886
0.670317
0.652199
0.652499
0.656110
0.639694
0.654550
0.649140
0.658470
0.636593
0.632750
0.650497
0.623157
0.616982
0.610664
0.590923
0.597314
0.604300
0.609526
0.633184
0.615456
0.660604
0.680397
0.662996
0.651959
0.652952
0.631120
0.681608
0.680480
0.662483
0.665504
0.655742
0.669881
0.663547
0.664710
0.684670
0.678003
0.676938
0.687534
0.675318
0.665865
0.667864
0.673741
0.655225
0.681422
0.679137
0.645811
0.675079
0.678206
0.670508
0.705285
0.692110
0.686939
0.688230
0.666354
0.687368
0.662130
0.639726
0.659852
0.624606
0.632045
0.680909
1.203499
0.906031
0.745282
0.833103
0.935632
0.848006
0.867676
0.811259
0.816571
0.862374
0.806972
0.919994
1.028095
1.171772
1.261377
1.215601
1.298370
1.209286
1.153638
1.316985
1.358569
1.421112
0.759879
0.753114
0.746604
0.755738
0.714441
0.644692
0.638971
0.657594
0.625535
0.598797
0.639587
0.709103
0.694955
1.457466
1.378300
1.320062
1.211930
1.285338
1.182766
0.967374
0.976705
0.898846
0.809888
0.675743
0.672880
0.676900
0.718549
0.611675
0.617201
0.617480
0.625990
0.625534
0.649315
0.664743
0.683605
0.724292
0.732639
0.740580
0.761103
0.754615
0.750296
0.767817
0.764771
0.745507
0.719471
0.674171
0.687238
0.703336
0.725913
0.712762
0.706022
0.717155
0.672608
0.714470
0.715209
0.698283
0.689872
0.671418
0.628865
0.621934
0.626019
0.612675
0.620103
0.646109
0.661318
0.673669
0.654757
0.672352
0.690233
0.652454
0.669106
0.676252
0.670378
0.680768
0.684438
0.655798
0.681304
0.676936
0.673415
0.665612
0.661721
0.656600
0.673160
0.659380
0.664045
0.676691
0.654806
0.657586
0.668904
0.682380
0.674530
0.679893
0.662289
0.626814
0.613671
0.603132
0.577380
0.580393
0.584373
0.593941
0.636436
0.636848
0.650084
0.674945
0.676373
0.678349
0.682688
0.705031
0.713374
0.692524
0.693397
0.693980
0.686444
0.673560
0.678796
0.685406
0.707980
0.698314
0.703604
0.696108
0.693337
0.678786
0.675910
0.681127
0.667874
0.710517
0.664433
0.661920
0.687126
0.653663
0.661405
0.682345
0.657533
0.656842
0.651036
0.644047
0.648481
0.622786
0.619332
0.626909
0.620529
0.657468
0.739500
0.941565
0.967412
0.695206
1.068231
0.975338
1.007931
0.867665
0.829243
0.790339
0.857302
0.846338
0.959299
0.920034
1.123436
1.223527
1.031337
1.127082
1.104120
1.175551
1.200497
0.699899
0.703336
0.690291
0.678873
0.675886
0.670049
0.661075
0.648481
0.637976
0.630552
0.625659
0.617736
0.611377
0.845300
0.994065
0.969276
1.004394
0.966727
0.994480
1.060673
1.116078
1.117345
1.009887
1.100838
1.090877
1.075322
0.979750
1.122999
0.794005
0.869910
0.915380
0.891812
0.885082
0.830738
0.795034
0.834003
0.935381
0.885436
0.877044
0.850009
0.803317
0.809314
0.791884
0.806356
0.777394
0.825321
0.891633
0.898228
0.899574
1.065526
1.232526
1.221807
0.966874
0.904407
0.757518
0.699731
0.685682
0.630269
0.639185
0.648788
0.686751
0.674783
0.771973
0.684967
0.617752
0.585755
0.618213
0.664337
0.779719
0.882934
0.873259
0.939203
0.947147
0.787163
0.584308
0.685457
0.635634
0.740858
0.835218
0.681563
0.971325
0.719469
0.948586
0.758865
0.599811
0.645103
0.627905
0.657505
0.671039
0.705737
0.714504
0.761933
0.824672
0.767023
0.765446
0.680766
0.738645
0.751092
0.753546
0.768178
0.693053
0.777571
1.020072
0.800082
0.815432
1.211672
1.062256
1.248722
1.240243
1.148632
1.028021
0.915608
0.852244
0.773451
0.819461
0.863430
0.923337
0.849193
0.762323
0.769283
0.805829
0.750918
0.788060
1.333025
1.206377
1.104013
0.942904
1.158037
0.769283
1.075921
1.250258
0.944372
0.988551
0.780888
0.840475
0.792421
0.783071
0.763202
0.737156
0.700746
0.670637
0.674031
0.673116
0.649023
0.662992
0.708037
0.709561
0.732505
0.796137
0.784218
0.814954
0.875132
0.862562
0.874270
0.869206
0.838436
0.762351
0.770789
0.723318
0.670639
0.726009
0.780682
0.768926
0.778237
0.776164
0.774237
0.763858
0.791711
0.801225
0.772652
0.676911
0.748332
0.810896
0.883758
0.803468
0.854956
0.779729
0.761382
0.760036
0.775582
0.771513
0.771580
1.016891
1.239631
1.258058
1.232736
0.850991
1.098558
0.943408
1.469454
1.073505
1.082534
1.119047
1.143610
1.151282
1.132315
0.959780
0.862030
0.894746
1.112822
0.968851
0.698045
0.669943
0.743985
0.772649
0.803445
0.799433
0.829403
0.806118
0.779861
0.787819
0.784879
0.744873
0.724545
0.769934
0.757968
0.764050
0.749234
0.738308
0.784391
0.848582
0.785499
0.906528
0.888764
0.934727
0.791367
0.675824
0.603125
0.607872
0.639259
0.684780
0.667485
0.707182
0.715315
0.606563
0.628557
0.596694
0.574186
0.617145
0.610720
0.763823
0.748398
0.768298
0.613102
0.612848
0.621627
0.601309
0.657487
0.653491
0.837726
0.677479
0.617246
0.586958
0.601251
0.616102
0.648778
0.613657
0.606166
0.625107
0.690444
0.705390
0.779592
0.758418
0.733693
0.713260
0.691415
0.728433
0.693518
0.759356
0.706282
0.662449
0.698657
0.820752
0.846562
0.834985
0.993432
1.074812
1.089170
1.144077
1.191599
0.911737
0.983771
0.960703
0.847334
0.815654
0.735495
0.682597
0.723606
0.753783
0.809926
0.815832
0.817606
0.767926
0.782739
0.740719
0.786365
0.781159
0.746369
0.811420
0.904091
0.955349
0.965203
0.732137
0.896012
0.744958
0.735663
0.842819
1.407800
1.322881
1.179249
1.008087
0.886943
1.128950
1.043986
1.001123
0.931518
0.789445
0.681547
0.628859
0.648280
0.656573
0.692958
0.753734
0.765882
0.727533
0.680122
0.600271
0.578684
0.615495
0.602363
0.600579
0.617108
0.663900
0.735595
0.606846
0.610960
0.614034
0.627006
0.644489
0.671030
0.698404
0.752846
0.762721
0.787381
0.775762
0.769007
0.800481
0.799767
0.793910
0.751608
0.712976
0.702781
0.665210
0.683162
0.704262
0.721550
0.704801
0.682054
0.710392
0.709297
0.698390
0.682162
0.669511
0.634225
0.604208
0.631851
0.621689
0.643991
0.661795
0.691193
0.688687
0.686391
0.658556
0.685235
0.673147
0.685370
0.673954
0.680536
0.667709
0.679926
0.666246
0.670477
0.650974
0.677810
0.685658
0.681480
0.668267
0.692728
0.672069
0.676229
0.660398
0.665855
0.668162
0.667535
0.673417
0.677290
0.679588
0.655520
0.646998
0.622062
0.605063
0.590871
0.592928
0.605795
0.613588
0.635278
0.632336
0.657898
0.684731
0.689886
0.683172
0.690315
0.708112
0.719452
0.720947
0.717061
0.709915
0.720455
0.695454
0.722112
0.703014
0.694318
0.695289
0.680189
0.672774
0.672021
0.694842
0.695651
0.699704
0.668236
0.628378
0.618099
0.644445
0.612283
0.670905
0.700111
0.653338
0.640765
0.674419
0.680338
0.655119
0.653463
0.641286
0.625316
0.608294
0.604795
0.609522
0.609664
0.635279
0.773926
0.719984
1.042840
0.864511
0.902089
0.715684
0.705924
0.697211
0.680431
0.674258
0.661664
0.648363
0.635102
0.630261
0.619483
0.610565
0.772826
0.906913
0.811820
0.830340
0.745968
0.758298
0.727505
0.691897
0.650519
0.640344
0.624268
0.621203
0.627194
0.653062
0.666698
0.704095
0.713153
0.766492
0.771859
0.775337
0.841652
0.786305
0.754280
0.720888
0.672376
0.614176
0.631335
0.711548
0.735197
0.768786
0.768958
0.744566
0.764923
0.771253
0.747716
0.701927
0.654932
0.691537
0.730889
0.727590
0.759011
1.346037
1.128841
0.819376
0.631034
0.710171
0.924551
0.941268
1.059993
0.811669
0.656329
0.628796
0.621047
0.662128
0.706465
0.725269
0.720745
0.689913
0.651412
0.602893
0.575877
0.577877
0.580666
0.588484
0.595697
0.627668
0.691421
1.085248
1.100116
0.926074
0.863715
0.744694
1.147715
1.243212
0.743917
0.722004
0.749069
0.749949
0.712198
0.681960
0.651955
0.628389
0.612754
0.598751
0.595526
0.599370
0.633170
0.665936
0.697531
0.733239
0.766492
0.774706
0.764941
0.736785
0.731678
0.717178
0.660000
0.616539
0.595478
0.695550
0.716066
0.738921
0.768389
0.764619
0.748939
0.724940
0.684154
0.619235
0.642755
0.695324
0.681684
0.693984
0.661650
0.610258
0.706940
0.682343
0.745555
0.737554
0.724068
0.743805
0.715008
0.722249
0.724416
0.858831
1.050163
1.230520
1.189225
1.181871
1.234270
1.196039
1.323961
1.229540
1.101426
0.677386
0.671356
0.667807
0.660194
0.653642
0.643802
0.637394
0.627071
0.620601
0.612856
0.605907
0.603455
0.610344
0.631113
0.666035
0.701228
0.790491
0.806226
0.817571
0.818905
0.831245
0.842485
0.804191
0.741754
0.687381
0.667997
0.678380
0.680675
0.703649
0.691608
0.695097
0.714688
0.722668
0.732018
0.705392
0.692651
0.657630
0.658776
0.641735
0.643599
0.676468
0.681618
0.709255
0.700629
0.689818
0.685457
0.697987
0.674186
0.699166
0.680244
0.685815
0.677598
0.686029
0.679534
0.689669
0.689254
0.686771
0.699676
0.694999
0.682387
0.679500
0.698341
0.680289
0.692575
0.690306
0.708476
0.694292
0.687623
0.690837
0.691283
0.671339
0.663708
0.632327
0.615389
0.592611
0.617009
0.615825
0.632856
0.646706
0.656189
0.663232
0.688726
0.695587
0.710315
0.715763
0.708777
0.743396
0.742341
0.734148
0.724353
0.729968
0.720920
0.701611
0.712185
0.696022
0.704341
0.724574
0.730416
0.695226
0.691509
0.706191
0.679643
0.677117
0.655663
0.667992
0.663754
0.673365
0.640309
0.663993
0.657382
0.697014
0.655326
0.654724
0.643454
0.647406
0.649033
0.628203
0.609026
0.600724
0.602978
0.606499
0.621630
0.717417
0.888211
1.043361
0.949383
1.283287
0.763392
0.802404
0.769683
0.729291
0.669419
0.587916
0.605726
0.630465
0.673208
0.654185
0.639919
0.654290
0.647314
0.616542
0.624280
0.613564
0.580418
0.578726
0.589767
0.634053
0.602803
0.626318
0.595160
0.579398
0.602370
0.601223
0.594918
0.624699
0.610079
0.626666
0.586887
0.640246
0.559196
0.576155
0.594288
0.608797
0.668768
0.719850
0.687751
0.575314
0.582827
0.596794
0.587324
0.578537
0.574773
0.561296
0.645091
0.571115
0.587975
0.587429
0.623954
0.734325
0.740002
0.673036
0.658038
0.671239
0.665023
0.714354
0.687323
0.667098
0.669448
0.690044
0.778092
0.823789
0.840450
0.903429
0.913131
1.082818
1.048834
1.180472
1.175845
1.134097
0.875533
0.899232
0.853536
0.808591
0.769582
0.702003
0.643245
0.637086
0.660932
0.673565
0.693639
0.757954
0.802413
0.775765
0.714181
0.765943
0.746612
0.761250
0.785565
0.860996
0.660109
0.597624
0.628794
0.679151
0.710517
0.680049
0.704667
0.677647
0.733969
0.721576
0.739417
0.739023
0.673983
0.617693
0.581550
0.576700
0.571017
0.596422
0.667927
0.691197
0.714515
0.713573
0.723239
0.747076
0.708163
0.697874
0.677715
0.636392
0.608172
0.651338
0.664888
0.668113
0.662575
0.657599
0.647444
0.692120
0.689549
0.696909
0.715237
0.717167
0.688911
0.698359
0.706639
0.782204
0.936458
0.844424
1.240161
1.315329
1.221663
1.246239
1.096650
1.136741
1.082377
1.298504
1.135363
0.967087
0.881919
0.727333
0.645371
0.651338
0.631791
0.656684
0.673631
0.839753
0.834015
1.079805
1.242562
1.237963
1.205712
1.109235
1.136921
1.015819
0.980701
0.765058
0.762027
0.765585
0.665592
0.693499
0.738663
0.771541
0.805510
0.805118
0.800276
0.780377
0.741734
0.736437
0.673506
0.650978
0.692947
0.723125
0.721408
0.707667
0.707022
0.712815
0.751977
0.779241
0.769275
0.580852
0.571374
0.569542
0.576239
0.583373
0.593432
0.610435
0.647111
0.654226
0.645250
0.641099
0.640514
0.634516
0.630065
0.630903
0.620055
0.616534
0.600461
0.599275
0.609632
0.621159
0.659280
0.704496
0.798906
0.845325
0.863591
0.886596
0.845891
0.785069
0.733138
0.666709
0.653970
0.650990
0.672824
0.681984
0.686091
0.702780
0.728704
0.758755
0.749446
0.728819
0.786059
0.723731
0.701622
0.669436
0.668825
0.673555
0.678731
0.706977
0.704921
0.695143
0.694749
0.688176
0.677636
0.700761
0.682072
0.677553
0.676061
0.689244
0.677771
0.697526
0.680797
0.690047
0.674472
0.702949
0.696764
0.702869
0.729724
0.692925
0.701161
0.704484
0.708140
0.704022
0.694504
0.702789
0.699637
0.683808
0.648740
0.644971
0.655647
0.668539
0.642730
0.632801
0.632117
0.652691
0.679323
0.683736
0.699055
0.706763
0.717739
0.725851
0.742006
0.750117
0.740081
0.735356
0.728664
0.714484
0.702076
0.720346
0.723297
0.720900
0.702896
0.705363
0.699378
0.703628
0.677012
0.684678
0.702716
0.698207
0.679296
0.669371
0.665222
0.653167
0.644668
0.656988
0.667495
0.652064
0.654041
0.640321
0.637336
0.631179
0.625049
0.602500
0.596099
0.603101
0.597715
0.620540
0.738137
0.774587
0.855892
1.339872
0.742893
0.744164
1.103658
1.209252
1.215530
1.167129
1.043162
0.579702
0.606940
0.577793
0.584679
0.591094
0.577151
0.570367
0.586930
0.611228
0.584743
0.751577
0.710824
0.670150
0.648402
0.619937
0.596075
0.577131
0.565096
0.565772
0.569916
0.595270
0.653275
0.694977
0.674255
0.695744
0.660105
0.694195
0.699954
0.687231
0.652047
0.622915
0.611169
0.625382
0.651896
0.661723
0.654109
0.636591
0.633721
0.633229
0.686302
0.678549
0.691771
0.693521
0.698236
0.698569
0.721690
0.739280
0.832039
1.067089
0.807615
1.119476
0.933344
0.965658
0.785195
0.677582
0.721041
0.777205
0.805603
0.798891
0.794667
0.763117
0.733430
0.680279
0.606582
0.611641
0.659168
0.681754
0.675675
0.677761
0.698622
0.712057
0.766651
0.772663
0.769200
0.624833
0.585929
0.610465
0.656058
0.663662
0.664718
0.633169
0.645108
0.613191
0.618853
0.594686
0.578325
0.575147
0.573660
0.578597
0.590787
0.599337
0.598827
0.616478
0.668678
0.655991
0.658329
0.741613
0.792066
0.811683
0.871768
0.871596
0.877390
1.030843
1.080327
1.186187
1.178478
1.206182
1.165381
0.882929
0.872957
0.837680
0.818426
0.727053
0.690166
0.639014
0.622146
0.610177
0.619815
0.646944
0.690539
0.712143
0.743014
0.617890
0.615557
0.619427
0.622149
0.620664
0.612729
0.604024
0.584614
0.584709
0.595520
0.635475
0.670541
0.730090
0.916436
0.965788
0.972154
0.965875
0.744817
0.664025
0.657253
0.644004
0.646150
0.662492
0.659583
0.679701
0.712954
0.758675
0.769435
0.762322
0.933029
0.884613
0.883759
0.750884
0.667469
0.652909
0.676586
0.683104
0.683843
0.676256
0.666567
0.686387
0.680312
0.675481
0.687958
0.692149
0.677069
0.680487
0.682466
0.678214
0.690517
0.708786
0.682326
0.696966
0.703692
0.697624
0.707611
0.690929
0.696762
0.691542
0.699284
0.698226
0.700038
0.712430
0.717802
0.707107
0.685176
0.666626
0.660649
0.687351
0.727888
0.730487
0.674283
0.654988
0.669693
0.678785
0.695398
0.703623
0.716267
0.723832
0.722899
0.736348
0.751441
0.754105
0.754448
0.750786
0.751989
0.744477
0.730800
0.735095
0.727236
0.721080
0.722521
0.707963
0.713321
0.722186
0.726809
0.720004
0.697593
0.692117
0.708069
0.685142
0.699816
0.685746
0.660721
0.673906
0.672174
0.670385
0.672112
0.673434
0.662792
0.651394
0.649515
0.638703
0.622039
0.608262
0.599802
0.590293
0.591665
0.596517
0.607907
0.716103
0.886624
1.124126
0.709364
0.682440
0.691957
0.657652
0.617310
0.600265
0.587177
0.563663
0.564178
0.565880
0.575487
0.577854
0.613394
0.646902
0.673937
0.691083
0.704866
0.662994
0.661488
0.652206
0.607034
0.608861
0.622991
0.631099
0.627556
0.628110
0.641297
0.636344
0.624984
0.597862
0.636278
0.675227
0.674382
0.677156
0.673277
0.680326
0.687591
0.693000
0.702378
0.752112
0.793307
0.944085
0.807683
1.183603
0.973285
1.200708
1.206838
1.133698
1.151513
1.242822
1.166753
1.141553
1.133017
1.114373
1.108545
1.077151
1.105246
1.043520
1.060312
1.127980
1.127329
0.975010
0.895197
0.708725
0.699069
0.720560
0.764419
0.700027
0.737174
0.670233
0.657900
0.634747
0.609334
0.590189
0.579079
0.575524
0.585425
0.611494
0.643358
0.682836
0.694938
0.799637
0.690169
0.683290
0.601996
0.610064
0.591351
0.588500
0.594548
0.610361
0.653301
0.663399
0.613127
0.646858
0.691103
0.661547
0.663453
0.744301
0.749458
0.707172
0.682881
0.629294
0.593732
0.601075
0.618895
0.648307
0.659492
0.644777
0.633891
0.600059
0.614855
0.601407
0.755099
0.719164
0.703119
0.677991
0.696217
0.718806
1.093755
1.138001
1.027643
0.987854
0.647373
0.627074
0.613338
0.592519
0.580352
0.577335
0.580888
0.587314
0.597102
0.606782
0.604268
0.634790
0.640075
0.710267
0.748892
0.782295
0.811071
0.853292
0.843874
0.932997
0.970898
0.914515
1.126208
1.188550
1.217335
1.230728
1.218593
1.003610
0.836367
0.809751
0.731961
0.579185
0.574014
0.579038
0.578930
0.578303
0.582662
0.578671
0.578012
0.597308
0.576773
0.568112
0.610133
0.610805
0.610541
0.605529
0.585116
0.686363
0.979623
0.906472
0.921208
0.981425
0.707617
0.628589
0.619041
0.625568
0.642443
0.656672
0.666347
0.689423
0.734658
0.758966
0.792329
0.931985
1.032242
0.988057
0.794428
0.717190
0.671901
0.682769
0.673225
0.681503
0.686094
0.690081
0.675860
0.678155
0.673219
0.679213
0.677024
0.692094
0.671363
0.691872
0.693949
0.693725
0.701220
0.677532
0.688444
0.716847
0.701197
0.686854
0.694335
0.697631
0.686258
0.683300
0.689753
0.703721
0.707467
0.716749
0.718936
0.709225
0.690890
0.685629
0.685703
0.721138
0.834858
0.895006
0.708833
0.696562
0.687409
0.691741
0.701402
0.710267
0.727105
0.737770
0.685230
0.612692
0.617148
0.616882
0.602520
0.595856
0.581218
0.617785
0.893022
0.919059
0.876008
0.929716
0.627766
0.614152
0.613698
0.622241
0.636279
0.648871
0.656273
0.702889
0.723697
0.788976
0.920724
1.047142
0.959534
0.966033
0.787884
0.669972
0.667192
0.677068
0.692831
0.699996
0.698481
0.692960
0.682213
0.665092
0.648727
0.677953
0.698915
0.680545
0.676446
0.659786
0.688185
0.676279
0.657567
0.653230
0.681805
0.696840
0.697898
0.690776
0.700579
0.688612
0.671990
0.683260
0.679651
0.692029
0.721300
0.720679
0.702944
0.699509
0.699462
0.705169
0.771650
0.874040
0.912288
0.811110
0.755874
0.714652
0.711486
0.713534
0.712889
0.740147
0.754465
0.752774
0.694143
0.690879
0.752760
0.733390
0.716982
0.713934
0.663264
0.657489
0.611310
0.598457
0.601687
0.618170
0.636963
0.628818
0.628784
0.604186
0.597594
0.577567
0.572068
0.569396
0.585506
0.581769
0.576359
0.582756
0.569419
0.582654
0.580644
0.576592
0.571536
0.573708
0.572580
0.578193
0.583709
0.576542
0.585237
0.811416
1.005853
1.011155
1.002440
0.966122
0.915734
0.915057
0.905854
0.966704
0.860969
0.829951
0.793195
0.724498
0.708179
0.642155
0.633564
0.617647
0.577197
0.571137
0.564028
0.565230
0.573733
0.902995
0.813126
0.865532
0.615031
0.618979
0.632348
0.679308
0.668769
0.735104
0.778663
0.784369
0.795333
0.781732
0.741349
0.698498
0.641060
0.594455
0.598485
0.633036
0.663026
0.657203
0.652757
0.661092
0.685312
0.729326
0.764825
0.746239
0.608027
0.625217
0.868439
0.878921
0.782060
0.701765
0.648852
0.638921
0.641669
0.653955
0.652938
0.656210
0.687848
0.740789
0.847022
0.998303
0.741085
1.152256
1.004106
0.771097
0.662390
0.660229
0.682299
0.686235
0.702828
0.713204
0.697394
0.694458
0.692436
0.680506
0.682658
0.681796
0.691531
0.675229
0.683502
0.672495
0.666393
0.676963
0.701793
0.700620
0.687557
0.675974
0.660618
0.676467
0.692676
0.667091
0.688707
0.677574
0.661406
0.709081
0.703692
0.696204
0.694490
0.697383
0.691590
0.755135
1.040965
0.910741
0.909476
0.779149
0.725565
0.703465
0.692902
0.721110
0.737836
0.752530
0.755128
0.750503
0.751200
0.758328
0.755848
0.749068
0.743500
0.737932
0.740560
0.741211
0.727494
0.731151
0.729970
0.710474
0.713834
0.724648
0.708469
0.701827
0.702675
0.692642
0.683556
0.692576
0.673887
0.659176
0.658385
0.658230
0.663072
0.664492
0.649146
0.660375
0.655289
0.645527
0.630651
0.617167
0.608528
0.607747
0.596050
0.594739
0.597473
0.620495
0.698430
0.587939
0.620223
0.648133
0.642719
0.605942
0.579590
0.585923
0.622872
0.666308
0.639231
0.624554
0.678902
0.725354
0.737623
0.766141
0.787212
0.777843
0.916030
0.939483
0.927356
0.984410
1.159278
1.190121
1.219674
1.214603
1.189552
0.984980
0.803370
0.782618
0.729304
0.662818
0.645057
0.593993
0.577153
0.596005
0.594646
0.647283
0.660560
0.705825
0.722476
0.644015
0.606718
0.702542
0.731400
0.679872
0.647680
0.630745
0.677317
0.602188
0.581241
0.567475
0.563703
0.571212
0.586069
0.617600
0.644004
0.677145
0.765108
0.757765
0.750401
0.748172
0.742134
0.740554
0.737294
0.728454
0.728240
0.726355
0.707678
0.708451
0.718321
0.719811
0.716952
0.686957
0.693843
0.675134
0.687959
0.662671
0.651660
0.657388
0.649411
0.642234
0.659786
0.667627
0.665224
0.650384
0.652623
0.639489
0.635160
0.623741
0.617238
0.603570
0.598067
0.601611
0.605316
0.668293
0.756097
0.748299
0.730119
0.711068
0.687004
0.708133
0.610003
0.610840
0.601004
0.605918
0.626376
0.607701
0.642739
0.605295
0.599450
0.569147
0.567278
0.573324
0.578090
0.576852
0.572589
0.577273
0.571953
0.565431
0.572601
0.579354
0.636000
0.633574
0.644962
0.660119
0.677744
0.670680
0.665097
0.676119
0.693171
0.724654
0.756838
0.868393
0.861411
1.045433
0.760979
0.749546
0.828800
0.952764
0.912413
0.804808
0.774349
0.705307
0.672019
0.752968
0.775659
0.786155
0.785406
0.766019
0.753787
0.612913
0.619784
0.628755
0.632467
0.634331
0.597203
0.587439
0.574496
0.579083
0.582799
0.588922
0.600025
0.609422
0.626238
0.645426
0.624099
0.630554
0.628064
0.629519
0.612978
0.580295
0.565680
0.574314
0.578118
0.597806
0.602513
0.605665
0.576335
0.619742
0.601813
0.618391
0.642738
0.668605
0.689507
0.711832
0.724944
0.636407
0.588150
0.589560
0.605020
0.595398
0.643694
0.663114
0.679073
0.688426
0.725751
0.746008
0.845781
0.942325
1.053224
1.181722
1.209069
1.234580
1.261526
1.228941
0.895371
0.749603
0.706778
0.683993
0.656113
0.619590
0.601120
0.576252
0.558921
0.581917
0.574698
0.600697
0.630330
0.663311
0.696141
0.622364
0.617653
0.633996
0.637939
0.652713
0.638078
0.652529
0.662883
0.661525
0.683360
0.701581
0.738299
0.821468
0.898393
0.935068
1.210679
0.786920
0.890541
1.002281
0.946147
0.947536
0.843540
0.580000
0.581679
0.610654
0.580266
0.563336
0.555468
0.559520
0.579268
0.592424
0.631651
0.654291
0.640110
0.634932
0.633216
0.605972
0.590305
0.573653
0.567465
0.566481
0.563346
0.567948
0.588137
0.598864
0.626963
0.649678
0.648009
0.658659
0.673061
0.682885
0.649997
0.639740
0.632147
0.621346
0.605921
0.603931
0.624173
0.609096
0.622283
0.626091
0.621675
0.748109
0.772695
0.782031
0.781290
0.751175
0.720981
0.666667
0.614727
0.590062
0.599930
0.632756
0.642492
0.653343
0.677669
0.698704
0.734960
0.769617
0.649519
0.590935
0.601465
0.603020
0.597569
0.581147
0.570671
0.556501
0.578148
0.566555
0.583505
0.580421
0.589724
0.594129
0.666635
0.609495
0.580774
0.564189
0.551056
0.552628
0.564089
0.584583
0.605042
0.627439
0.630749
0.621643
0.622746
0.602487
0.607434
0.573755
0.562366
0.560408
0.569439
0.566056
0.576321
0.583976
0.588030
0.604533
0.623265
0.642930
0.623684
0.640577
0.622308
0.624570
0.644932
0.620118
0.631726
0.630589
0.618312
0.589168
0.632102
0.618409
0.638193
0.615061
0.620081
0.662657
0.616786
0.589185
0.580000
0.569273
0.565421
0.565174
0.569948
0.741668
0.740853
0.735351
0.708825
0.677559
0.665045
0.690044
0.628941
0.620118
0.613933
0.631499
0.629729
0.601469
0.599449
0.579752
0.563790
0.563407
0.559734
0.566920
0.570032
0.569567
0.572325
0.569444
0.572428
0.571319
0.570613
0.609231
0.581981
0.576070
0.583151
0.591215
0.637722
0.619195
0.655738
0.698224
0.710213
0.702359
0.733222
0.901872
1.056181
1.152529
1.198216
1.211030
1.143623
1.334276
1.411242
0.846195
0.727409
0.686466
0.664777
0.629182
0.612677
0.585651
0.571697
0.578454
0.562762
0.569082
0.570145
0.589209
0.606591
0.627939
0.652366
0.767840
0.765530
0.756401
0.751445
0.747540
0.727513
0.734782
0.723467
0.727581
0.723017
0.712311
0.713359
0.715922
0.715875
0.687642
0.675115
0.672011
0.665845
0.650142
0.646479
0.640801
0.637345
0.658440
0.654062
0.653959
0.654230
0.660645
0.672834
0.650562
0.634702
0.622454
0.613448
0.621064
0.605857
0.606630
0.607746
0.655152
0.653382
0.688711
0.723674
0.737277
0.738854
0.721815
0.690917
0.715992
0.610300
0.612301
0.622907
0.569872
0.575167
0.583585
0.589562
0.600960
0.622123
0.637899
0.678017
0.718725
0.622444
0.618492
0.631721
0.654993
0.683610
0.619208
0.602785
0.685841
0.659886
0.677926
0.702515
0.716340
0.723632
0.717992
0.712425
0.660019
0.630197
0.627563
0.629042
0.613339
0.587168
0.569074
0.635672
0.626326
0.648382
0.675893
0.694027
0.718375
0.763062
0.781240
0.757949
0.734275
0.695561
0.652233
0.612907
0.588744
0.584898
0.594901
0.613509
0.620821
0.614765
0.624968
0.624053
0.655516
0.703390
0.729757
0.567123
0.571168
0.564511
0.590669
0.596009
0.584981
0.592477
0.604907
0.631908
0.620061
0.627121
0.634860
1.063874
0.997437
0.766249
0.688015
0.751586
0.683922
0.687677
0.695481
0.702420
0.702399
0.685590
0.703439
0.699743
0.687133
0.693165
0.659356
0.661969
0.662454
0.661961
0.679266
0.667010
0.654654
0.694912
0.682934
0.686163
0.671564
0.672120
0.663524
0.676307
0.657385
0.676282
0.663473
0.682748
0.693831
0.582750
0.577476
0.576480
0.570237
0.577755
0.580295
0.590854
0.601435
0.649811
0.660217
0.666286
0.675316
0.692129
0.727814
0.795642
0.938756
1.131429
1.145137
1.240930
1.240523
1.240751
0.924238
0.858591
0.738386
0.684523
0.648498
0.664454
0.607656
0.621769
0.576953
0.563550
0.560584
0.563598
0.559830
0.563499
0.569808
0.583248
0.593957
0.603827
0.603366
0.578876
0.659891
0.669383
0.681854
0.698311
0.718633
0.739590
0.795012
0.674938
0.643946
0.695082
0.630136
0.614977
0.600843
0.588380
0.792662
0.880604
0.785241
0.733476
0.699040
0.673178
0.615371
0.612462
0.640031
0.624772
0.646088
0.642698
0.663416
0.673325
0.693981
0.703399
0.720910
0.797464
1.010580
0.852683
1.133024
0.641845
1.042057
0.984486
0.723049
0.720901
0.582065
0.577957
0.567163
0.560877
0.549679
0.550584
0.558644
0.555684
0.564516
0.579108
0.732280
0.739014
0.728458
0.723925
0.701401
0.678845
0.646357
0.636556
0.601746
0.607541
0.626871
0.618897
0.612467
0.596865
0.596026
0.566900
0.564988
0.561252
0.553521
0.555407
0.561705
0.557590
0.560712
0.567259
0.565640
0.781010
0.768464
0.751420
0.734889
0.733626
0.726254
0.717196
0.715333
0.735256
0.723624
0.725970
0.724128
0.718830
0.734654
0.705066
0.708154
0.705444
0.712793
0.702147
0.702616
0.674731
0.676798
0.653022
0.641927
0.629197
0.623676
0.617267
0.642625
0.667443
0.665105
0.674119
0.676427
0.668327
0.648766
0.654636
0.694683
0.688943
0.739080
0.728747
0.740908
0.732739
0.711529
0.672736
0.626655
0.600420
0.591599
0.645936
0.670476
0.708661
0.697696
0.689980
0.688831
0.713777
0.723044
0.822888
0.926555
0.926580
1.067483
0.916853
0.788468
0.712777
0.690442
0.698655
0.717413
0.743869
0.752567
0.767265
0.747574
0.733607
0.720374
0.721703
0.713653
0.710225
0.698965
0.688179
0.675704
0.735878
0.562554
0.563891
0.579624
0.563139
0.552743
0.550758
0.561161
0.581903
0.589395
0.600344
0.607793
0.611802
0.595439
0.585759
0.570853
0.574223
0.559022
0.563094
0.559626
0.570134
0.563660
0.614158
0.613908
0.650131
0.648494
0.649862
0.642009
0.625613
0.615665
0.632472
0.631257
0.624877
0.619998
0.626182
0.606623
0.628267
0.720831
0.714050
0.694999
0.707531
0.719242
0.707576
0.713202
0.701071
0.703424
0.698010
0.711121
0.680393
0.686929
0.658517
0.665133
0.655672
0.619673
0.617754
0.618615
0.635805
0.658042
0.668575
0.688421
0.690888
0.688658
0.684602
0.732845
0.572363
0.566917
0.561858
0.556246
0.569831
0.573218
0.585006
0.583894
0.603230
0.588421
0.632278
0.636265
0.639486
0.661513
0.675719
0.729045
0.793742
0.879509
0.978059
1.061012
1.138391
1.220834
1.163149
1.192755
0.908446
0.738768
0.748689
0.709965
0.645828
0.614173
0.604577
0.570170
0.908455
0.931910
0.714636
0.691758
0.688617
0.693687
0.698131
0.701486
0.708679
0.710257
0.681151
0.692679
0.694744
0.679625
0.696886
0.667645
0.690390
0.666896
0.663289
0.668438
0.683725
0.673154
0.662487
0.663209
0.655794
0.651831
0.664033
0.652659
0.643857
0.654773
0.670322
0.877587
0.905621
0.717099
0.682943
0.694797
0.689741
0.703280
0.696067
0.689729
0.683256
0.676583
0.690665
0.691847
0.678023
0.687857
0.682765
0.676888
0.686064
0.658483
0.654770
0.683467
0.675849
0.654455
0.658283
0.653553
0.653987
0.666707
0.654238
0.635012
0.643337
0.650457
0.643808
0.666562
0.671600
0.677055
0.683062
0.677521
0.673694
0.702562
0.742068
0.785283
0.913974
1.135503
1.066205
0.949995
0.946069
0.743298
0.717000
0.702068
0.678075
0.679939
0.694240
0.690721
0.694703
0.743104
0.754227
0.736660
0.727911
0.717561
0.712946
0.718104
0.709276
0.561613
0.562014
0.556359
0.564330
0.570746
0.570972
0.714843
0.720709
0.718394
0.720938
0.698136
0.683481
0.670370
0.653259
0.642513
0.608973
0.597186
0.630815
0.635695
0.617394
0.613104
0.585251
0.574156
0.573374
0.563774
0.557264
0.553950
0.553061
0.552983
0.550699
0.554773
0.683803
0.697100
0.722808
0.719219
0.691336
0.651871
0.619409
0.618520
0.595522
0.600237
0.611294
0.632589
0.639530
0.651578
0.654068
0.603890
0.606941
0.611911
0.640254
0.663106
0.650497
0.693730
0.687462
0.702338
0.703506
0.758575
0.864297
1.122969
0.731844
0.552202
0.552675
0.560904
0.560053
0.563564
0.549910
0.555904
0.563386
0.566129
0.569282
0.582520
0.582724
0.582726
0.625315
0.611393
0.616890
0.636013
0.656315
0.657930
0.668345
0.695256
0.760168
0.810917
0.949268
0.956167
0.909158
1.117031
1.186865
1.176121
0.976401
0.873307
0.700773
0.670584
0.645730
0.607715
0.581207
0.578521
0.565704
0.568099
0.557665
0.560596
0.561430
0.559919
0.566897
0.573910
0.575989
0.579947
0.766727
0.760714
0.546830
0.559188
0.551534
0.560894
0.563821
0.554324
0.553505
0.560784
0.568202
0.577891
0.579784
0.599576
0.587609
0.576051
0.581007
0.565561
0.563968
0.556639
0.562159
0.555601
0.557356
0.567722
0.569789
0.569442
0.585619
0.597776
0.616238
0.630250
0.632219
0.620784
0.630252
0.619451
0.620054
0.636393
0.625107
0.623058
0.637187
0.621664
0.621393
0.617360
0.611761
0.704487
0.703254
0.705021
0.697714
0.707177
0.699290
0.712398
0.713293
0.697572
0.672364
0.669283
0.660959
0.664466
0.643384
0.639703
0.644649
0.636232
0.644646
0.667595
0.704933
0.724024
0.718639
0.663585
0.667413
0.666634
0.663089
0.659000
0.661168
0.753935
0.788654
0.953982
1.181251
1.082556
1.142095
0.979150
0.750574
0.697635
0.692429
0.727019
0.692748
0.686272
0.697817
0.697505
0.694731
0.719184
0.740736
0.674550
0.714954
0.705553
0.714399
0.698943
0.698336
0.685257
0.682326
0.677127
0.689653
0.706742
0.703262
0.688525
0.709583
0.689399
0.674569
0.667876
0.654385
0.641089
0.627640
0.614815
0.619219
0.631479
0.630576
0.602261
0.601036
0.586258
0.574211
0.574766
0.562916
0.557915
0.556899
0.551876
0.549810
0.548852
0.550973
0.550335
0.626581
0.634492
0.642955
0.656855
0.652811
0.663469
0.695794
0.662980
0.683055
0.564585
0.556844
0.552651
0.558130
0.566074
0.578890
0.587630
0.577911
0.578943
0.570158
0.562551
0.561530
0.560456
0.560161
0.557451
0.568320
0.561231
0.564574
0.553682
0.571019
0.575293
0.571190
0.588056
0.596027
0.628464
0.616970
0.630111
0.632417
0.638656
0.619370
0.634769
0.616731
0.637142
0.643094
0.618151
0.630477
0.644089
0.635731
0.644332
0.739794
0.724006
0.714888
0.675682
0.649790
0.630084
0.607386
0.593892
0.600690
0.620304
0.618742
0.638315
0.630860
0.669268
0.684251
0.552151
0.551869
0.554585
0.553244
0.558760
0.564734
0.563458
0.569474
0.572768
0.577561
0.584439
0.592615
0.597410
0.620866
0.617447
0.634591
0.642331
0.658385
0.660388
0.684394
0.756774
0.867777
0.957328
1.205172
0.808530
1.079145
1.151859
1.141310
1.023804
0.846706
0.723414
0.739396
0.717177
0.717244
0.724791
0.668630
0.627339
0.588988
0.580533
0.570516
0.568139
0.560490
0.553625
0.551621
0.554230
0.556279
0.556676
0.559320
0.558997
0.562789
0.693135
0.689794
0.693227
0.678408
0.717923
0.717503
0.706816
0.704337
0.683808
0.676647
0.691566
0.673223
0.696745
0.666120
0.693710
0.688689
0.707643
0.661087
0.673000
0.683645
0.700778
0.667912
0.660847
0.660784
0.677698
0.661011
0.645649
0.655051
0.640497
0.641428
0.634096
0.643527
0.652436
0.623238
0.633481
0.622573
0.693458
0.689724
0.717981
0.672588
0.691209
0.671746
0.667013
0.652843
0.633265
0.635329
0.619710
0.630696
0.630742
0.604195
0.600981
0.594818
0.579584
0.579389
0.567815
0.715370
0.697833
0.671697
0.633642
0.604134
0.613286
0.597289
0.597585
0.630732
0.652689
0.651066
0.664632
0.691680
0.641963
0.646052
0.664660
0.671670
0.557021
0.553804
0.555948
0.562207
0.580118
0.830416
0.815050
0.790784
0.696900
0.690428
0.713322
0.650866
0.632036
0.604869
0.580682
0.572775
0.572952
0.556533
0.553640
0.551597
0.550006
0.552272
0.555129
0.554381
0.557079
0.554702
0.556318
0.620963
0.683366
0.670999
0.662179
0.674516
0.644377
0.654385
0.643922
0.644869
0.630581
0.630070
0.631020
0.619895
0.625171
0.615802
0.614415
0.609554
0.622565
0.645527
0.652599
0.649548
0.655804
0.653397
0.646845
0.638850
0.727279
0.811325
1.096381
0.876066
1.046125
1.086201
0.915411
0.712866
0.696535
0.708150
0.702946
0.714754
0.689713
0.680539
0.682335
0.659451
0.661281
0.653744
0.639288
0.614977
0.619333
0.618864
0.570635
0.586096
0.610686
0.594093
0.613987
0.615436
0.686335
0.679128
0.697966
0.702518
0.715800
0.682257
0.663487
0.658753
0.664923
0.678783
0.672262
0.661285
0.655762
0.666470
0.686937
0.679616
0.691745
0.709818
0.710883
0.702507
0.701809
0.714849
0.695148
0.684301
0.660177
0.638184
0.629308
0.626062
0.603812
0.599736
0.632693
0.714295
0.690372
0.685605
0.682450
0.678051
0.665110
0.661637
0.644455
0.640271
0.625345
0.623146
0.641893
0.651564
0.655377
0.611382
0.648782
0.626677
0.638460
0.640967
0.616283
0.649713
0.645909
0.561257
0.564311
0.561364
0.564384
0.554188
0.554013
0.560066
0.560387
0.558014
0.555108
0.572013
0.569840
0.564537
0.569335
0.614233
0.607258
0.618942
0.641694
0.656366
0.678059
0.677243
0.676950
0.676956
0.691822
0.641151
0.604961
0.615822
0.594075
0.588302
0.582045
0.569071
0.570660
0.568983
0.574461
0.577050
0.580068
0.589359
0.600406
0.651897
0.655541
0.672686
0.665005
0.639338
0.664552
0.654764
0.639199
0.628342
0.629453
0.608388
0.614806
0.615315
0.611389
0.622317
0.613907
0.626695
0.625495
0.637271
0.641832
0.646808
0.646858
0.645997
0.656750
0.697982
0.789219
1.099830
0.896249
1.084966
1.102216
1.114692
0.984506
0.928344
0.873134
0.774001
0.697054
0.674561
0.672341
0.684041
0.687359
0.699123
0.688279
0.657793
0.653216
0.665061
0.668177
0.554291
0.560521
0.564783
0.689141
0.655610
0.631765
0.606379
0.580194
0.561027
0.554359
0.556539
0.551226
0.549598
0.549356
0.548982
0.552170
0.555051
0.555136
0.555713
0.670523
0.599669
0.613241
0.612450
0.635951
0.650778
0.657837
0.693762
0.704289
0.787420
0.961433
1.073306
1.076903
0.984085
1.076479
1.098902
1.050238
0.943754
0.690003
0.705269
0.693902
0.696630
0.668525
0.685030
0.670142
0.653740
0.649002
0.629135
0.627168
0.615080
0.605467
0.590779
0.578061
0.575196
0.565959
0.572745
0.570949
0.572640
0.587866
0.583045
0.589642
0.573799
0.591931
0.595892
0.616568
0.631386
0.624094
0.629388
0.641318
0.653271
0.638196
0.618922
0.629668
0.645014
0.645517
0.652644
0.645190
0.670624
0.685903
0.719687
0.695806
0.704683
0.698413
0.690108
0.684509
0.700949
0.711076
0.705576
0.645635
0.672770
0.648663
0.642568
0.628289
0.608239
0.609367
0.602903
0.606279
0.614966
0.615132
0.612073
0.614341
0.606699
0.624231
0.629669
0.634230
0.640528
0.642320
0.647144
0.654076
0.678295
0.784414
0.993926
1.180743
1.165053
1.140076
1.132247
1.053652
1.064873
0.960852
0.862476
0.795703
0.721205
0.675004
0.664198
0.658431
0.662260
0.668232
0.672119
0.673524
0.652962
0.644713
0.644290
0.644182
0.554799
0.563444
0.556491
0.555434
0.551189
0.562041
0.556212
0.551297
0.554282
0.571306
0.560510
0.568598
0.586103
0.581961
0.644683
0.631999
0.621707
0.646296
0.667825
0.678165
0.682834
0.697618
0.705006
0.704998
0.687268
0.559306
0.551585
0.551485
0.552106
0.553528
0.549998
0.550204
0.562478
0.553907
0.632698
0.636045
0.645348
0.623946
0.618023
0.620275
0.608952
0.602239
0.601103
0.586712
0.602871
0.587900
0.604825
0.602120
0.605268
0.612470
0.626728
0.631808
0.641841
0.646761
0.657594
0.674497
0.760118
0.956092
1.112270
1.187642
1.070000
0.906657
1.169288
1.085966
0.944897
0.930017
0.822842
0.778495
0.667621
0.655415
0.646918
0.640569
0.649241
0.660747
0.657890
0.635350
0.633538
0.636761
0.623323
0.655291
0.649727
0.580218
0.591564
0.603574
0.611410
0.624970
0.633122
0.622953
0.613415
0.633344
0.943633
1.117813
1.137295
1.165249
0.840325
0.747400
0.788885
0.955413
1.083289
0.694262
0.694530
0.683580
0.680206
0.690343
0.668322
0.667887
0.663423
0.638949
0.638524
0.650425
0.636962
0.604448
0.608183
0.598182
0.590487
0.590979
0.570503
0.566456
0.559509
0.590981
0.589867
0.592720
0.593897
0.602432
0.556264
0.552815
0.559049
0.551938
0.559213
0.557046
0.559731
0.550157
0.566433
0.562252
0.561799
0.590240
0.578207
0.578614
0.689595
0.637274
0.632212
0.642495
0.661573
0.663198
0.693838
0.703869
0.686265
0.680859
0.677980
0.696235
0.672111
0.646620
0.639261
0.662173
0.613016
0.584936
0.567793
0.906912
0.959224
1.174485
1.198464
1.139973
1.018434
1.011370
0.868279
0.783597
0.732616
0.678031
0.641330
0.612534
0.558886
0.575654
0.583813
0.645881
0.616348
0.632182
0.602937
0.592944
0.589058
0.598636
0.593552
0.594279
0.602399
0.589496
0.596961
0.598606
0.588123
0.603594
0.615700
0.624424
0.643222
0.648313
0.660731
0.670206
0.761920
0.934466
1.008176
1.160194
1.034522
0.931089
0.642709
0.622372
0.598279
0.585519
0.578005
0.578222
0.572248
0.579707
0.594538
0.594034
0.599451
0.609189
0.601396
0.596813
0.599934
0.610493
0.629626
0.639979
0.643487
0.683525
0.723077
0.554759
0.629930
0.629651
0.640147
0.642803
0.626470
0.642486
0.665804
0.657707
0.666462
0.682937
0.691349
0.670557
0.663727
0.636809
0.641445
0.638080
0.616181
0.622603
0.625805
0.617566
0.626640
0.611091
0.612181
0.592010
0.569140
0.586963
0.606517
0.592613
0.605078
0.612713
0.556695
0.552483
0.550955
0.555559
0.554191
0.554644
0.554065
0.582970
0.574415
0.581591
0.574207
0.572697
0.581345
0.605643
0.595511
0.590469
0.594321
0.565031
0.608626
0.606196
0.599538
0.597164
0.605181
0.614124
0.632362
0.615301
0.608731
0.623811
0.613049
0.615945
0.598201
0.579113
0.580636
0.577800
0.579432
0.583137
0.589887
0.586726
0.587575
0.593614
0.606319
0.619358
0.644404
0.663829
0.667922
0.713347
0.752387
0.904951
1.070215
1.206293
1.119021
1.144440
0.947854
1.169666
0.857911
0.770922
0.788431
0.660873
0.652171
0.629905
0.629299
0.638052
0.633007
0.625442
0.633030
0.620517
0.608275
0.613893
0.846765
0.824916
0.780449
0.741184
0.697169
0.656531
0.631289
0.606115
0.574867
0.573318
0.565174
0.772832
0.758415
0.748457
0.707723
0.659891
0.644091
0.620548
0.596986
0.579493
0.573029
0.563069
0.552211
0.555681
0.616343
0.605710
0.602066
0.603648
0.607579
0.619276
0.623120
0.631629
0.648201
0.637777
0.674010
0.647574
0.553623
0.551290
0.554196
0.563980
0.579910
0.578436
0.574868
0.578546
0.582063
0.595646
0.585748
0.602426
0.606215
0.606858
0.615015
0.706906
0.691806
0.616679
0.613698
0.611120
0.608212
0.615492
0.624260
0.670702
0.628057
0.650242
0.642148
0.614536
0.596024
0.579014
0.568944
0.557587
0.554847
0.558160
0.549716
0.551589
0.552647
0.563806
0.564070
0.569485
0.566495
0.583136
0.576946
0.584961
0.607345
0.578022
0.585536
0.600544
0.595359
0.571158
0.574208
0.581226
0.585365
0.600056
0.622754
0.555534
0.582771
0.567732
0.570083
0.578175
0.622216
0.565728
0.562757
0.554864
0.564652
0.565645
0.727670
0.631452
0.698196
0.709201
0.813216
0.715525
0.751166
0.727381
0.599377
0.585922
0.714882
0.621832
0.756652
0.849335
0.805689
0.639724
0.668711
0.676653
0.673411
0.871857
0.620561
0.637125
0.578355
0.590068
0.589320
0.615103
0.679374
0.703866
0.744258
0.765803
0.834303
0.680815
0.691267
0.679344
0.667405
0.660070
0.557165
0.563037
0.563946
0.558443
0.560459
0.550877
0.555592
0.552602
0.553116
0.567220
0.582657
0.591957
0.576884
0.569403
0.559498
0.715870
0.728189
0.722980
0.701439
0.679712
0.689686
0.606591
0.629493
0.617296
0.652730
0.666304
0.687518
0.710660
0.691448
0.707136
0.739495
0.696129
0.655687
0.644759
0.602977
0.620526
0.560595
0.549111
0.558226
0.626640
0.621661
0.630778
0.557236
0.549662
0.552738
0.555740
0.552244
0.552092
0.618188
0.607236
0.609619
0.662663
0.712910
0.671678
0.668446
0.693206
0.638388
0.672208
0.653507
0.647654
0.657101
0.648008
0.650017
0.624788
0.607426
1.256541
0.811923
0.942567
1.255648
1.207269
1.112122
1.100823
0.858145
0.749131
0.747951
0.795180
0.845800
1.008547
1.043746
0.969949
0.853013
0.889466
0.787045
0.864131
1.012848
1.152163
0.876430
1.055997
1.022470
0.797175
0.746834
0.791315
0.786732
0.861809
0.819213
0.846228
0.883157
0.823075
0.868826
0.917615
0.803153
0.971401
0.866247
0.777450
0.796210
0.807273
0.787354
0.886812
0.854426
1.041842
0.988187
0.862142
0.899468
0.930809
0.928993
0.943953
0.995472
0.923410
0.925294
0.901149
0.884625
0.909058
0.904967
0.914709
0.934823
0.801467
0.751372
0.754165
0.764572
0.779357
0.794898
0.806818
0.825045
0.834007
0.846185
0.879757
0.903443
0.883967
0.900769
0.890682
0.856527
0.839135
0.919277
1.036570
0.981695
0.953913
0.949122
0.772537
0.912212
0.987934
0.896789
0.854701
0.892560
0.845923
0.828953
0.825176
0.830371
0.828198
0.818046
0.816277
0.813242
0.811077
0.794254
0.793059
0.784755
0.795884
0.774729
0.750760
0.845097
0.833848
0.875263
0.827161
0.832291
0.766811
0.827681
0.715129
0.982683
0.976284
0.941521
0.868288
0.796649
0.824748
0.797047
0.784978
0.778285
0.794580
0.758506
0.790467
0.753132
0.766572
0.749783
0.757313
0.751393
0.715564
0.748452
0.717225
0.743932
0.727670
0.771269
0.730652
0.762259
0.763654
0.744343
0.764218
0.749141
0.777123
0.754645
0.769226
0.753779
0.770300
0.764395
0.744365
0.746955
0.757345
0.790165
0.788217
0.752575
0.803078
0.763866
0.806088
0.800521
0.804561
0.815715
0.806754
0.810477
0.767362
0.803256
0.762135
0.764489
0.749629
0.733691
1.176800
1.101815
1.069334
1.004496
1.122018
1.235437
0.950586
1.143461
1.146005
1.006238
0.992652
0.885124
1.073132
0.942546
1.022135
1.135665
0.837472
0.999866
1.092773
0.868987
0.831453
0.791090
0.903285
0.852058
0.952338
1.042609
0.814716
0.991175
0.872495
0.945090
0.815279
1.016687
1.146351
1.071088
1.055857
0.960373
0.978132
1.017229
0.896929
1.048669
0.822682
0.765610
0.750705
0.739796
0.781011
0.994415
1.078129
1.225001
0.855373
0.893979
0.817233
0.806715
0.761732
0.926571
0.847822
0.936529
1.130789
0.727542
0.780441
0.820021
0.767761
0.760806
0.753001
0.753761
0.774373
0.797807
0.845660
0.811472
0.826895
0.820809
0.858410
0.753024
0.716192
0.742892
0.781863
0.816762
0.775999
0.910257
0.876207
0.805236
0.829277
0.853384
0.858926
0.905899
0.959530
0.929848
0.915947
0.951518
0.876888
0.891094
0.901121
0.938397
0.931598
0.889914
0.895359
0.871897
1.093817
1.229015
1.167732
1.009134
1.159087
0.788685
0.771157
0.792220
0.782319
0.764291
0.760963
0.733192
0.993080
0.976539
0.895117
0.906663
0.886949
0.839273
0.833123
0.830134
0.806564
0.805963
0.808513
0.824469
0.813668
0.788591
0.783178
0.773445
0.782683
0.772475
0.761238
0.731088
0.757313
0.746880
0.758727
0.739085
0.774788
0.773574
0.757261
0.769550
0.786681
0.760590
0.776189
0.763619
0.780398
0.780483
0.778031
0.769236
0.767440
0.779994
0.752423
0.783305
0.798919
0.772181
0.763176
0.799687
0.808868
0.809810
0.815639
0.801521
0.795232
0.795523
0.790725
0.789118
0.772229
0.764849
0.768519
0.763195
0.761723
0.870679
1.118544
1.203658
1.114412
0.974265
0.976769
0.980358
1.059850
1.028573
1.005410
0.895462
0.864014
1.002705
1.057093
0.791796
0.783096
0.914577
0.861368
1.020730
1.107429
0.946292
0.916285
0.884854
0.887590
0.880632
0.922985
1.142990
1.159610
1.296519
0.823525
1.202101
1.196200
1.213466
1.139841
1.112515
1.104918
1.129449
1.095665
1.101700
1.020739
0.939695
0.895692
0.797880
0.860230
0.860217
0.858767
0.910018
0.906785
0.876177
0.902969
0.941668
0.860997
0.929412
0.903377
0.866002
0.986666
1.113464
1.202194
1.259219
1.202497
0.997583
1.031306
1.040007
0.998499
0.885237
0.896434
0.882273
0.867015
0.845841
0.818320
0.804057
0.799006
0.793511
0.810585
0.788586
0.801666
0.826909
0.844859
0.861604
0.867263
0.925102
0.981222
0.954629
0.972815
1.037324
1.001570
0.994045
1.077965
1.074307
0.987379
1.147105
0.874021
0.885805
0.824978
0.817125
0.792863
0.789128
0.780699
0.807944
0.825608
0.944296
1.014946
0.778871
0.762763
0.746122
0.761260
0.718712
0.778851
0.791906
0.813260
0.840961
0.787554
0.816976
0.727061
0.722553
0.713980
0.720992
0.745703
0.770144
0.761285
0.744023
0.777821
0.812128
0.786717
0.816508
0.842960
0.882636
0.924490
0.968579
0.874066
0.876434
0.874512
0.901563
0.912880
0.875780
0.815405
0.863846
0.859932
0.853310
1.077240
1.240370
0.739737
0.751251
0.778933
0.813771
0.832267
0.857085
0.880771
0.934749
0.950129
0.974188
1.033802
1.050577
1.045104
1.101476
1.168954
1.083543
1.005552
1.014938
1.103255
1.011878
1.057358
0.882745
0.939196
0.904730
0.842099
0.979769
0.881953
0.856684
0.783748
0.784722
0.786937
0.758909
0.779560
0.814950
0.917412
1.101259
1.048817
1.012380
0.896274
0.831094
0.784450
0.778852
0.808499
0.822367
0.851646
0.850153
0.849163
0.851258
0.838584
0.813204
0.812001
0.799032
0.773664
0.756065
0.774539
0.770406
0.757998
0.768632
0.769831
0.767578
0.785032
0.762906
0.776487
0.787869
0.787351
0.775225
0.786442
0.780263
0.780397
0.790119
0.794475
0.795798
0.795944
0.796710
0.778006
0.796254
0.784006
0.783872
0.779135
0.762524
0.790359
0.796249
0.818065
0.820550
0.814501
0.811616
0.808243
0.829599
0.814954
0.817446
0.797483
1.195630
1.120090
1.086165
1.077060
1.031135
0.962576
1.082730
0.997756
0.844183
0.866581
0.804911
0.832593
0.793144
0.874961
0.876359
0.878334
0.927988
0.883643
0.887412
0.857275
0.882054
0.964367
0.935437
1.160078
1.220962
1.190989
1.294493
1.009326
1.014945
0.924499
1.073750
0.923014
0.921284
0.942371
0.902189
0.847793
0.807215
0.800792
0.768976
0.772830
0.887814
0.842235
0.756458
0.825623
0.852313
0.811560
0.747913
0.692403
0.700539
0.716045
0.749354
0.798143
0.777714
0.769608
0.730423
0.771686
0.775853
0.815866
0.773998
0.805326
0.796499
0.818686
0.788546
0.717716
0.708684
0.684406
0.707376
0.725383
0.743277
0.768715
0.775852
0.759912
0.728139
0.763346
0.816438
0.814988
0.811902
0.769264
0.740605
0.718532
0.721636
0.727166
0.747014
0.746909
0.777534
0.770574
0.757715
0.781206
0.824354
0.828988
0.839590
0.996247
0.980998
0.914486
0.825521
0.965310
0.923982
0.818390
0.813200
0.798423
0.785751
0.821993
0.826198
0.851504
0.963676
0.854593
0.791933
0.782299
0.787557
0.910712
0.893212
0.853939
1.131039
0.939940
0.898751
0.797393
0.791579
0.797035
0.863817
0.872794
0.906735
0.900121
0.869298
0.843694
0.828138
0.804946
0.785134
0.763345
0.763028
0.771710
0.758444
0.768788
0.761101
0.781820
0.788996
0.768923
0.753838
0.789903
0.777445
0.782994
0.770769
0.792646
0.794045
0.803507
0.800292
0.801612
0.800399
0.800280
0.798480
0.791374
0.791482
0.773258
0.768508
0.764314
0.754434
0.806361
0.845743
0.847650
0.835012
0.819159
0.809999
0.822566
0.820474
0.818831
0.843736
0.836391
0.806442
0.837312
0.833177
0.809047
0.762859
0.767064
0.851450
0.894540
0.886668
0.909523
0.900859
0.975127
0.935948
0.980207
1.044154
1.104166
0.936404
1.016798
1.074452
1.090133
0.984471
0.850556
1.012479
0.988423
0.800714
0.754412
0.792158
0.805008
0.866624
0.863156
0.909341
0.960814
0.955877
0.867252
0.934727
0.845914
0.844911
0.808637
0.758470
0.772829
0.744554
0.810318
0.843279
0.875006
0.881143
0.839735
0.906306
0.908734
0.947821
0.894129
0.874134
0.882469
0.871028
0.951463
1.124614
1.132621
1.171849
1.234483
1.247799
1.248221
1.033972
1.115320
0.890387
1.153321
1.071962
1.090682
1.044665
0.909747
0.804814
0.790100
0.840875
0.794979
0.774958
0.891837
1.114472
0.952011
0.820746
1.134505
0.893193
0.822252
0.815488
0.796196
0.790776
0.802516
0.824359
0.848085
0.842553
0.851347
0.959185
0.941737
0.871683
0.875576
0.833259
0.813662
0.807327
0.776819
0.756347
0.741982
0.762421
0.755932
0.784391
0.760416
0.761168
0.769366
0.810216
1.214682
1.201070
1.072433
1.162851
1.213716
1.228121
1.030909
1.152308
1.033386
0.788763
0.801064
0.794824
0.778273
0.760838
0.750089
0.778727
0.809061
0.829864
0.861871
0.841786
0.863436
0.875708
0.897669
0.898872
0.902922
0.986168
1.017506
1.042161
0.864656
1.066443
1.038034
1.080612
0.992622
0.942076
0.901187
0.887436
0.968813
0.781418
0.739828
0.740322
0.754026
0.783811
0.776435
0.765522
0.761234
0.784084
0.811283
0.835576
0.841056
0.831759
0.822845
0.752217
0.721419
0.698327
0.720816
0.708305
0.703022
0.724394
0.739341
0.726618
0.727142
0.746383
0.801236
0.811678
0.778105
0.784537
0.749453
0.741184
0.742078
0.727746
0.724363
0.740825
0.741270
0.792142
0.794092
0.809268
0.820298
0.810144
0.812321
0.807810
0.817517
0.820678
0.826659
0.819502
0.808861
0.802043
0.776632
0.778183
0.788920
0.803055
0.841518
0.905097
0.859681
0.895348
0.845476
0.836397
0.819165
0.815677
0.841074
0.776504
0.756401
0.766054
0.764211
0.778466
0.732166
0.752055
0.812084
0.818346
0.779169
0.764525
0.765479
0.757980
0.744031
0.739185
0.739192
0.770391
0.786680
0.827965
0.846116
0.860252
0.858530
0.839725
0.875499
0.897858
0.955938
0.878167
0.914885
1.020813
1.060955
0.997073
0.932951
0.953731
0.953027
0.941172
0.826131
0.851496
0.797634
0.743355
0.738936
0.751240
0.751765
0.840568
0.834626
0.803270
0.801976
0.799017
0.779480
0.735857
0.735019
0.773333
0.808273
0.786622
0.827609
0.863352
0.869430
0.893382
0.935486
1.158442
1.170665
1.167454
0.906732
0.995001
0.911036
0.880667
1.166106
0.986301
1.011839
0.967834
0.933427
0.873311
0.818541
0.857445
0.829713
0.814102
0.826481
0.843636
0.882969
0.870086
0.933624
0.956564
0.877687
0.833130
0.819747
0.782638
0.779751
0.769444
0.765724
0.769337
0.753245
0.741917
0.749211
0.765932
0.789208
0.779060
0.763864
0.807230
0.860281
0.845541
0.863819
0.899472
0.948361
0.946376
0.961922
0.830729
0.826641
0.920009
0.903099
0.918904
0.912910
0.991499
1.056191
1.067551
1.139512
1.185125
0.796618
0.784436
0.792238
0.799673
0.817098
0.809879
0.820281
0.823442
0.840998
0.850246
0.817316
0.822727
0.812065
0.820262
0.783763
0.790493
0.795438
0.789331
0.794882
0.803851
0.845031
0.947928
1.006976
0.968335
0.869093
0.833821
0.826153
0.738547
0.749201
0.759337
0.774612
0.790739
0.767486
0.744578
0.716307
0.776593
0.781907
0.790453
0.753324
0.792537
0.760806
0.757995
0.744392
0.718034
0.735108
0.745056
0.774626
0.795762
0.788062
0.801834
0.807932
0.828144
0.849093
0.872496
0.938383
0.979640
1.010296
0.920204
0.875173
0.892902
0.897065
0.924481
0.944416
1.069067
1.095040
1.163015
1.148137
1.170163
1.188146
1.163585
1.112677
0.788044
0.729760
0.711227
0.699782
0.694107
0.712110
0.703814
0.701103
0.704036
0.725916
0.709417
0.711125
0.734338
0.751312
0.793172
0.806373
0.770880
0.774410
0.759736
0.759745
0.753118
0.725057
0.933895
0.818836
0.834581
0.927017
0.834588
0.938640
1.005164
1.029024
0.997149
0.967941
0.873218
0.944837
0.888637
0.762223
0.774833
0.806942
0.816345
0.813944
0.850456
0.863530
0.916093
0.917721
0.861821
0.814300
0.796041
0.782255
0.757620
0.741047
0.748342
0.749176
0.745733
0.745065
0.717597
0.715657
0.734637
0.745386
0.771922
0.784842
0.786744
0.793429
0.790299
0.793584
0.820510
0.816970
0.821527
0.833330
0.847777
0.875920
0.912082
0.930638
0.890493
0.835070
0.766088
0.750493
0.737299
0.774748
0.796032
0.830630
0.865973
0.930339
0.974899
0.862825
0.846801
0.844886
0.868375
0.830392
0.810984
0.812696
0.793092
0.817888
0.775375
0.779038
0.783492
0.794510
0.818125
0.846558
0.955459
0.987830
0.953287
0.959617
0.814061
0.809702
0.756498
0.747890
0.742878
0.751998
0.759788
0.764509
0.782663
0.775078
0.772589
0.777396
0.756287
0.744688
0.723754
0.723732
0.922796
0.891918
0.915954
0.984007
1.171946
1.141837
0.959654
0.793180
0.786167
0.773197
0.772665
0.761762
0.753618
1.089296
1.104440
0.872583
0.861155
0.753192
0.763825
0.768603
0.783743
0.772884
0.724684
0.755238
0.785557
0.777175
0.759006
0.763617
0.781241
0.780838
0.759622
0.744534
0.726331
0.711088
0.714479
0.730732
0.748883
0.780966
0.779194
0.813739
0.826510
0.821902
0.818503
0.801531
0.832046
0.833023
0.823271
0.795846
0.765331
0.715694
0.709642
0.703605
0.686062
0.688220
0.691369
0.713367
0.691818
0.994552
0.908939
0.738986
0.716149
0.706291
0.704073
0.700698
0.735478
0.725783
0.725191
0.753133
0.756886
0.768015
0.774869
0.803577
0.817384
0.797484
0.818072
0.824073
0.821667
0.830546
0.825768
0.712949
0.714916
0.692884
0.703651
0.707602
0.698287
0.709036
0.716252
0.719692
0.743605
0.755788
0.764414
0.767385
0.778836
0.804897
0.778614
0.773811
0.806156
0.819878
0.823150
0.824742
0.820627
0.814961
0.798005
0.783981
0.823408
0.771782
0.792570
0.782593
0.783772
0.780903
0.793390
0.824792
0.861090
1.023996
1.071347
0.767984
0.792819
0.757670
0.756379
0.723794
0.710174
0.698822
0.701464
0.692720
0.683034
0.689222
0.694457
0.696796
0.698541
0.690187
0.799206
0.804619
0.767051
0.768075
0.709334
0.705774
0.710890
0.696672
0.692068
0.684586
0.681982
0.683133
0.696738
0.689777
0.709723
0.736543
0.757961
0.779293
0.813470
0.775834
0.754145
0.745439
0.752584
0.759413
0.753081
0.773110
0.774411
0.760888
0.757714
0.748121
0.735021
0.731069
0.745765
0.766530
0.763535
0.791333
0.781480
0.779484
0.764257
0.772805
0.768604
0.750140
0.729749
0.709159
0.706021
0.703084
0.719011
0.737056
0.720857
0.736803
0.739820
0.736032
0.732397
0.717495
0.744646
0.751003
0.771010
0.800714
0.779080
0.776393
0.778358
1.023587
1.019851
0.978028
0.978286
0.773759
0.766932
0.785309
0.806627
0.803417
0.815066
0.814893
0.825791
0.828193
0.807573
0.823315
0.796908
0.818120
0.796640
1.035080
0.996007
0.944228
0.861337
0.890938
0.755983
0.900270
0.772700
0.779746
0.752943
0.748127
0.749857
0.760569
0.784249
0.779874
0.782004
0.791636
0.807306
0.830333
0.816400
0.824245
0.816817
0.763340
0.739550
0.730888
0.708485
0.710503
0.717717
0.740081
0.724921
0.771772
0.764095
0.771150
0.781088
0.765772
0.777767
0.767917
0.768285
0.744600
0.714039
0.696404
0.693434
0.700392
0.714408
0.747596
0.736931
0.723127
0.731689
0.729226
0.773013
0.775269
0.773732
0.781126
0.784600
0.787013
0.851249
0.952261
0.716701
0.746917
0.715737
0.722210
0.714560
0.702604
0.709252
0.717701
0.742403
0.761266
0.775992
0.811963
0.750761
0.814113
0.844541
0.916155
0.834878
0.817165
0.818664
0.960992
0.821564
0.827346
0.764842
0.761311
0.749516
0.749410
0.764602
0.769536
0.786298
0.804776
0.807961
0.798163
0.737567
0.720548
0.740265
0.709301
0.710958
0.695622
0.692751
0.693259
0.701011
0.692274
0.696710
0.705436
0.715649
0.734254
0.735435
0.745113
0.758426
0.802414
0.819418
0.803119
0.797596
0.787913
0.762219
0.752588
0.759372
0.769754
0.770185
0.727218
0.706237
0.702005
0.700487
0.705359
0.710301
0.751665
0.762148
0.764444
0.763767
0.770757
0.773264
0.751462
0.755230
0.752478
0.713577
0.700793
0.689780
0.689651
0.789494
0.822214
0.813569
0.827854
0.805315
0.801766
0.702394
0.699329
0.703709
0.693612
0.711810
0.721792
0.726743
0.709552
0.807049
0.780323
0.791852
0.795995
0.816248
0.785863
0.760346
0.763825
0.768803
0.773144
0.790935
0.721260
0.711567
0.704268
0.704509
0.695809
0.687193
0.691872
0.691527
0.715221
0.703991
0.708424
0.722294
0.723199
0.723677
0.762330
0.754917
0.761400
0.772513
0.774645
0.791563
0.797248
0.808155
0.814155
0.806703
0.684940
0.687035
0.811998
0.807029
0.806136
0.802453
0.765273
0.756228
0.744344
0.812799
0.767003
0.743257
0.711722
0.701317
0.703861
0.699174
0.695500
0.683973
0.684787
0.675349
0.683865
0.694629
0.688718
0.685346
0.716922
0.730661
0.749893
0.756814
0.740842
0.686350
0.692350
0.698044
0.698066
0.708573
0.703894
0.804199
0.789715
0.765577
0.725372
0.719397
0.711632
0.718273
0.714697
0.712194
0.700109
0.701498
0.690145
0.684432
0.679183
0.678775
0.681731
0.798068
0.801283
0.788933
0.789380
0.760918
0.756949
0.729754
0.721104
0.700530
0.709840
0.716172
0.724489
0.732656
0.708755
0.707358
0.688748
0.682025
0.681702
0.699702
0.711471
0.720651
0.683085
0.738864
0.731180
0.725793
0.750051
0.762001
0.729517
0.730457
0.703685
0.716035
0.699689
0.696190
0.701610
0.696415
0.691002
0.711287
0.684032
0.710420
0.732548
0.737671
0.729752
0.739828
0.735800
0.748274
0.759220
0.760178
0.776058
0.785801
0.792513
0.799474
0.785805
0.788863
0.775966
0.785070
0.742418
0.738506
0.737134
0.722226
0.727919
0.744619
0.734137
0.755505
0.748832
0.743544
0.754599
0.743707
0.736543
0.739179
0.765024
0.754058
0.759601
0.803343
0.759778
0.726100
0.715875
0.711378
0.715296
0.702808
0.692247
0.948467
0.925242
0.836240
0.920185
1.168570
1.061930
1.176338
0.851327
0.843902
1.057934
0.918939
0.822202
0.820598
0.792432
1.084966
1.019107
1.009190
0.991300
0.887079
0.878193
0.697015
0.705704
0.696479
0.687868
0.797473
0.813820
0.833045
0.772296
0.789766
0.800490
0.778175
0.780849
0.757267
0.824428
0.820153
0.797797
0.753040
0.758398
0.792778
0.755772
0.750320
0.785771
0.690986
0.755231
0.730835
0.811228
0.800325
0.785051
0.772380
0.801436
0.807434
0.707911
0.787933
0.915134
0.806362
0.872427
0.836793
0.843145
0.806810
0.848872
0.926469
0.903572
0.750719
0.801762
0.795606
0.845641
0.894985
0.992141
0.977859
0.862415
0.895013
1.049001
0.873518
0.816170
0.928780
0.919146
0.836837
0.867137
0.802195
0.792655
0.790065
0.754258
0.835055
0.952285
1.045459
1.181907
0.710868
0.709843
0.728621
0.749528
0.770489
0.782990
0.802964
0.795966
0.804508
0.822515
0.849478
0.822857
0.821083
0.811518
0.788140
0.750449
0.748201
0.740218
0.714324
0.739046
1.230977
1.087686
1.054204
1.048979
0.939075
0.882621
0.862277
1.004367
0.906667
0.958516
0.860606
0.870783
0.883419
1.078152
1.009794
0.891363
0.930405
0.849767
0.839779
0.966482
0.970632
0.934260
1.066979
0.998397
1.162848
1.085863
0.862931
0.825789
0.757007
0.736057
0.810469
0.779886
1.005933
0.874789
0.891199
0.991754
1.092179
1.035473
1.046183
0.996221
0.853334
0.759230
0.889526
0.871625
0.821750
0.842028
0.840932
0.791458
0.793111
0.799470
0.894645
0.809741
0.704310
0.751556
0.688079
0.743900
0.685557
0.750592
0.681616
0.688804
0.681987
0.671565
0.727128
0.667571
0.729631
0.684617
0.703901
0.677351
0.744263
0.681576
0.738372
0.701787
0.774689
0.702903
0.775940
0.704268
0.770863
0.698534
0.749996
0.697165
0.727268
0.689794
0.695253
0.685457
0.713252
0.678405
0.705381
0.686545
0.689655
0.682231
0.728139
0.674450
0.728006
0.687030
0.765221
0.681974
0.741189
0.685937
1.120697
1.204087
1.159174
1.127460
1.040588
1.113810
1.155291
1.110611
1.038432
1.022891
0.955853
0.920806
0.864982
0.832151
0.741470
0.756461
0.791614
0.785091
0.782832
0.788554
0.837803
0.829971
0.801248
0.785654
0.700953
0.742832
0.775938
0.864768
0.788578
0.934714
0.873440
0.898888
0.931411
0.791545
1.027876
0.909031
0.873119
0.763454
0.691007
0.717733
0.909902
1.076588
1.190534
1.185138
1.293713
0.855911
0.847298
0.835472
0.956210
1.043980
0.862259
0.771552
0.763853
0.803599
0.765884
0.841150
0.815484
0.851359
0.811130
0.818150
0.933519
0.895570
0.986062
0.956792
1.144531
0.935537
0.817247
0.730626
0.739367
0.742890
0.749627
0.759625
0.760163
0.907846
0.923073
0.994292
1.033639
1.004752
0.890297
0.916464
0.905460
0.874570
0.792081
0.806347
0.747571
0.767416
0.759370
0.748721
0.769606
0.837252
0.903709
0.836433
0.794403
0.797072
1.189502
1.248836
0.786037
0.755004
0.726095
0.696796
0.694312
0.687344
0.685873
0.694221
0.685357
0.708024
0.688729
0.696702
0.686836
0.696149
0.686379
0.683276
0.688429
0.709774
0.726706
0.723480
0.745183
0.755851
0.758928
0.757774
0.754896
0.748383
0.735490
0.722749
0.702801
0.707539
0.694575
0.670137
0.701267
0.687936
0.689388
0.697990
0.681664
0.702385
0.695283
0.690484
0.679815
0.678852
0.665568
0.693809
0.687170
0.705426
0.733495
0.740916
0.755885
0.772727
0.772703
0.791888
0.762844
0.762555
0.812237
0.805634
0.790026
0.781763
0.764679
0.735493
0.703575
0.703983
0.702244
0.722506
0.901015
0.780529
0.830281
0.793443
0.834346
0.873816
0.968216
1.004002
0.952532
0.928383
0.891061
0.834273
0.903000
0.783659
0.775797
0.696399
0.950927
0.752590
0.737581
0.694874
0.708368
0.702081
0.725345
0.812452
0.839581
0.824025
0.848675
0.871740
1.127778
1.255467
1.245021
1.247862
1.214646
0.875493
0.809394
0.788105
0.802248
0.802310
0.827546
0.790553
0.886054
0.888496
0.950005
0.784523
0.719030
0.727671
0.753699
0.841578
0.753396
0.779814
0.833377
0.900244
0.945387
0.839257
0.796499
0.771132
0.753471
0.761775
0.813561
0.786458
0.897947
0.905484
0.945386
0.959614
0.790456
0.768681
0.794194
0.736616
0.745848
0.766908
0.732746
0.763276
0.761732
0.740707
0.722436
0.737795
0.762190
0.748205
0.771283
0.789793
0.764025
0.777490
0.791284
0.781373
0.783534
0.783289
0.791362
0.715490
0.682241
0.684351
0.719906
0.750779
0.741464
0.750391
0.726064
0.729963
0.730713
0.707808
0.693753
0.709277
0.715315
0.728136
0.739177
0.738263
0.752709
0.745948
0.779559
0.763538
0.718129
0.741146
0.731561
0.743002
0.726637
0.691916
0.725563
0.706181
0.724916
0.758083
0.729431
0.697190
0.682039
0.676425
0.678139
0.679210
0.678796
0.683574
0.695830
0.690086
0.685490
0.681883
0.682099
0.700357
0.700613
0.721913
0.724782
0.754998
0.770519
0.784775
0.790909
0.793157
0.787448
0.779844
0.761980
0.737427
0.714877
0.700419
0.691106
0.694620
0.689777
0.679164
0.672919
0.678416
0.681252
0.691684
0.679610
0.676600
0.690283
0.693503
0.696060
0.708436
0.691526
0.706069
0.775601
0.760683
0.711495
0.682880
0.685773
0.687376
0.705857
0.744721
0.790025
0.861531
0.854043
0.855829
0.917021
0.857218
1.252522
1.262640
1.240405
1.251209
1.060694
0.871131
0.740815
0.757184
0.731785
0.759033
0.765535
0.816028
0.805796
0.765997
0.796836
0.818326
0.756768
0.727065
0.728933
0.722014
0.736420
0.748722
0.736666
0.772537
0.810332
0.799116
0.828655
0.871968
0.853443
0.822360
0.809935
0.800358
0.793255
0.813374
0.817695
0.856860
0.868455
0.866475
0.782337
0.736190
0.712089
0.732058
0.719850
0.762625
0.775549
0.763312
0.736871
0.724639
0.706400
0.719021
0.714239
0.726237
0.731586
0.718378
0.725923
0.727123
0.724234
0.727077
0.739911
0.752779
0.776580
0.716614
0.727700
0.723107
0.733356
0.732605
0.738357
0.729695
0.693227
0.721697
0.706677
0.699914
0.702208
0.685656
0.694336
0.710979
0.698045
0.682149
0.669939
0.675107
0.691000
0.684783
0.691427
0.698187
0.711152
0.708538
0.709760
0.684487
0.672735
0.695902
0.685764
0.677121
0.683925
0.685952
0.688534
0.691159
0.695345
0.694690
0.689384
0.688789
0.717838
0.699830
0.714647
0.734375
0.727064
0.760669
0.781036
0.809671
0.827750
0.829022
0.825379
0.814278
0.786740
0.755922
0.724019
0.708083
0.690430
0.680385
0.677104
0.698304
0.674778
0.682160
0.678119
0.686470
0.690927
0.685823
0.689063
0.708930
0.709369
0.700838
0.744266
0.702350
0.687770
0.684006
0.684077
0.693058
0.707561
0.766012
0.796973
0.835637
0.848912
0.875392
0.862039
0.917868
1.010041
1.149976
1.263153
1.286101
1.268596
0.935086
0.841181
0.848440
0.745689
0.689572
0.737787
0.760881
0.825471
0.824560
0.919699
1.180869
1.264455
1.293791
1.264895
0.914008
0.897497
0.795142
0.803482
0.853704
0.726791
0.715405
0.716843
0.747546
0.783372
0.784243
0.786833
0.722752
0.775267
0.799381
0.780766
0.734189
0.788467
0.760114
0.747709
0.745016
0.750171
0.781728
0.770460
0.785403
0.820783
0.825616
0.873115
0.821373
0.835178
0.791344
0.792482
0.806817
0.813451
0.844863
0.816633
0.736141
0.709156
0.692217
0.692716
0.699137
0.722318
0.732044
0.720353
0.744162
0.751376
0.761390
0.749214
0.737137
0.712960
0.708638
0.700509
0.695130
0.703068
0.689420
0.692492
0.692398
0.695617
0.699795
0.703842
0.704268
0.725198
0.717248
0.716959
0.710141
0.723231
0.713705
0.693686
0.702416
0.685865
0.705288
0.686951
0.685203
0.680491
0.676055
0.666423
0.666270
0.669263
0.665489
0.674934
0.674952
0.680667
0.683166
0.685619
0.686438
0.702714
0.712703
0.714885
0.679205
0.670893
0.675422
0.682282
0.685535
0.682045
0.693445
0.707806
0.689154
0.713177
0.693874
0.722787
0.722224
0.718953
0.749537
0.756772
0.787756
0.827502
0.837754
0.858405
0.855081
0.817985
0.812299
0.751481
0.725212
0.710252
0.706049
0.690546
0.684432
0.672931
0.676041
0.683127
0.676717
0.679704
0.676083
0.681897
0.684922
0.703685
0.750293
0.714514
0.714762
0.693215
0.760420
0.804471
0.779667
0.799616
0.789009
0.793171
0.777609
0.771696
0.796006
0.762735
0.737551
0.735674
0.713191
0.675878
0.679139
0.674669
0.679879
0.685525
0.689916
0.688286
0.710941
0.741887
0.746187
0.757123
0.745470
0.722962
0.719018
0.795623
0.790020
0.905893
1.094774
1.257032
1.286510
1.257972
0.981850
0.990589
0.865471
0.798478
0.736752
0.749008
0.694363
0.702789
0.720603
0.734937
0.749712
0.765148
0.743552
0.739630
0.690660
0.695334
0.717147
0.740148
0.751178
0.803857
0.764279
0.699483
0.697810
0.684080
0.682022
0.689862
0.674355
0.679745
0.671164
0.703179
0.713458
0.694347
0.701063
0.695548
0.690940
0.690790
0.686149
0.686396
0.682346
0.676886
0.677825
0.671014
0.667549
0.663289
0.664742
0.666437
0.666743
0.670608
0.677597
0.763195
0.759559
0.753154
0.754173
0.784066
0.675265
0.682135
0.682323
0.689196
0.686473
0.684886
0.697004
0.697588
0.695951
0.694468
0.708067
0.707616
0.732236
0.739543
0.751492
0.789511
0.851427
0.878333
0.890951
0.891882
0.871140
0.814638
0.748165
0.716775
0.712574
0.701465
0.689378
0.693060
0.679499
0.675780
0.669527
0.690698
0.687451
0.670616
0.682092
0.700831
0.682963
0.707764
0.751164
0.675707
0.690160
0.686599
0.695374
0.690025
0.694206
0.680300
0.683398
0.684099
0.679444
0.678773
0.674150
0.673131
0.668140
0.670033
0.665910
0.668907
0.678592
0.745646
0.779141
0.768657
0.765539
0.757615
0.717527
0.688517
0.680186
0.666486
0.664962
0.665800
0.669028
0.670116
0.670699
0.670571
0.683032
0.704552
0.719710
0.738971
0.739263
0.723623
0.718138
0.686040
0.694711
0.688851
0.693273
0.671518
0.731874
0.741639
0.754720
0.760334
0.770503
0.758527
0.757832
0.761731
0.802045
0.882718
0.965840
1.159886
1.285693
1.181319
0.885603
1.213697
0.863345
0.833029
0.758546
0.705588
0.694086
0.705065
0.711120
0.732820
0.751088
0.737287
0.721173
0.700604
0.683709
0.682311
0.674301
0.704215
0.744440
0.766179
0.678045
0.670314
0.680598
0.684183
0.691793
0.690252
0.705205
0.701985
0.695083
0.696525
0.706259
0.715977
0.725251
0.741307
0.754826
0.783935
0.805038
0.924349
0.943184
0.976572
0.936225
0.759366
0.741444
0.713999
0.706629
0.704719
0.687613
0.679317
0.692399
0.674379
0.675444
0.685174
0.681270
0.673434
0.680211
0.718405
0.695862
0.691833
0.688855
0.679031
0.674230
0.693019
0.735082
0.717388
0.700412
0.677526
0.675340
0.670348
0.666401
0.663285
0.663423
0.665454
0.667889
0.672280
0.672751
0.674985
0.682350
0.695728
0.717760
0.733312
0.735545
0.725489
0.720952
0.697471
0.703732
0.692760
0.689104
0.674599
0.690335
0.760350
0.760979
0.748312
0.755003
0.813542
0.804250
0.834072
1.112787
1.319755
1.255344
1.265219
0.749474
0.933432
0.794975
1.075753
1.238008
1.266654
1.224684
1.142565
0.792123
0.792232
0.756440
0.736077
0.704246
0.717083
0.708863
0.716559
0.717005
0.714066
0.695040
0.688195
0.690100
0.676731
0.684890
0.689190
0.685054
0.692698
0.683797
0.715988
0.710379
0.718616
0.730270
0.769657
0.753915
0.808031
0.975072
0.957261
0.995952
1.009650
0.770239
0.720365
0.711084
0.720985
0.699758
0.702900
0.684841
0.680089
0.669845
0.681119
0.682947
0.682937
0.677401
0.686725
0.686134
0.684017
0.675741
0.674365
0.676060
0.668531
0.671716
0.674515
0.679052
0.674876
0.673902
0.708650
0.700277
0.684876
0.680578
0.673331
0.672207
0.696239
0.697111
0.674100
0.673059
0.669341
0.670011
0.671392
0.675665
0.679515
0.680605
0.686180
0.678484
0.679556
0.683188
0.694433
0.707167
0.720858
0.715079
0.717145
0.713723
0.702298
0.696106
0.694336
0.676325
0.698798
0.688031
0.689651
0.686272
0.689808
0.690386
0.683681
0.690141
0.697231
0.701253
0.719450
0.732893
0.730677
0.781428
0.820568
1.038703
1.052727
1.027189
1.072491
0.753726
0.746527
0.700073
0.712858
0.705245
0.704658
0.693303
0.689980
0.679576
0.669693
0.675235
0.680837
0.680899
0.674318
0.685169
0.687856
0.675286
0.687524
0.686381
0.694143
0.681349
0.694567
0.691200
0.682807
0.677771
0.679546
0.683937
0.689227
0.687071
0.679599
0.684700
0.687832
0.689454
0.679667
0.690226
0.698596
0.716423
0.715241
0.715838
0.712850
0.710837
0.685177
0.677321
0.680716
0.678925
0.677577
0.698805
0.688529
0.705561
0.708278
0.724048
0.736107
0.738682
0.737350
0.746509
0.748687
0.741360
0.720968
0.971729
1.242232
1.244907
1.216292
1.256614
1.094866
1.018797
0.793438
0.719198
0.732168
0.712934
0.703142
0.697073
0.695929
0.691022
0.703995
0.704788
0.699509
0.710599
0.691327
0.697029
0.691423
0.691854
0.682927
0.699832
0.703290
0.720152
0.723811
0.781470
0.802903
0.903161
1.005488
1.079469
1.072371
0.953270
0.854536
0.760353
0.745451
0.704810
0.696058
0.702428
0.700293
0.690209
0.686596
0.687574
0.682261
0.694320
0.692025
0.696569
0.693648
0.706419
0.694217
0.686617
0.688806
0.688108
0.697965
0.706486
0.715718
0.712154
0.724655
0.767904
0.852777
0.886143
1.043758
1.154637
1.131421
1.084440
0.899682
0.786873
0.734701
0.746184
0.720890
0.714451
0.709911
0.695993
0.691042
0.672110
0.683943
0.685118
0.687888
0.676265
0.700263
0.710422
0.714507
0.692531
0.689375
0.721208
0.722379
0.727189
0.724460
0.732440
0.710397
0.722260
0.735846
1.164511
1.196037
0.690944
0.688764
0.701002
0.695119
0.694463
0.690500
0.690564
0.690564
0.698883
0.695367
0.711584
1.207473
1.159686
0.850525
0.722814
1.026069
0.718487
0.688988
0.727705
0.725952
0.706960
0.708268
0.689313
0.685346
0.969420
0.683154
0.693516
0.731206
0.714692
0.800376
0.843764
0.790221
0.760534
0.711000
0.699877
0.694520
0.701776
0.696035
0.697697
0.805610
0.771392
0.700892
0.715174
0.702874
0.699262
0.686094
0.717165
0.720812
0.701723
0.703291
0.695208
0.687335
0.698896
0.712242
0.714905
0.708639
0.716135
0.712358
0.739583
0.720735
0.734485
0.691730
0.716935
0.705017
0.683116
0.698201
0.693665
0.710464
0.896030
0.852313
0.815593
0.849792
0.769266
0.794443
0.811806
0.835291
0.856488
0.825600
0.700845
0.677616
0.731818
0.765636
0.749589
0.721099
0.740543
0.735276
0.695594
0.767893
0.698113
0.692172
0.702293
0.691481
0.705787
0.695068
0.672584
0.768881
0.767626
SCALARS Max_Princ_Stress_SP5(MPa) float 1
LOOKUP_TABLE default
0.045114
0.062554
0.004259
0.006687
0.025882
0.000232
0.000000
0.000000
0.000000
0.000000
0.000000
0.001513
0.002895
0.001293
0.000282
0.000925
0.003878
0.002001
0.000652
0.000000
0.000064
0.000733
0.001604
0.000362
0.000254
0.000000
0.004120
0.004090
0.001492
0.003326
0.000694
0.004312
0.000692
0.002773
0.001395
0.003058
0.006771
0.003460
0.003079
0.003433
0.007481
0.004758
0.001946
0.001081
0.002166
0.007298
0.003376
0.008490
0.005851
0.005052
0.000814
0.001065
0.001683
0.005815
0.004170
0.001792
0.001953
0.002491
0.001906
0.000937
0.010836
0.001674
0.001183
0.012189
0.004149
0.008659
0.002175
0.006008
0.000000
0.000601
0.000662
0.000046
0.000000
0.001435
0.000000
0.000413
0.000531
0.000000
0.006277
0.001259
0.002045
0.000000
0.001793
0.006323
0.002986
0.019048
0.009490
0.000000
0.000038
0.000000
0.001383
0.000831
0.000186
0.002243
0.001367
0.001637
0.000000
0.000000
0.000474
0.000592
0.000533
0.001171
0.000573
0.002980
0.005602
0.005718
0.015632
0.011655
0.015005
0.017796
0.014265
0.011516
0.012755
0.003721
0.004095
0.008226
0.016064
0.018501
0.037902
0.003613
0.000635
0.002612
0.001327
0.025104
0.008464
0.002883
0.001067
0.000604
0.009828
0.001927
0.002161
0.000000
0.001087
0.001117
0.000000
0.000000
0.000272
0.000006
0.003141
0.001208
0.000600
0.000000
0.000000
0.001087
0.000000
0.000000
0.000144
0.000073
0.002999
0.000756
0.001264
0.000172
0.002926
0.007976
0.000897
0.006229
0.028703
0.016862
0.008614
0.000000
0.004434
0.000000
0.000000
0.000000
0.000301
0.002982
0.006268
0.011869
0.000219
0.000843
0.000760
0.002366
0.003509
0.000998
0.002063
0.002271
0.004861
0.005407
0.000753
0.000990
0.001937
0.000555
0.000146
0.000000
0.002709
0.015181
0.001720
0.000070
0.000541
0.001043
0.001366
0.002862
0.004781
0.002021
0.002668
0.002170
0.001196
0.000702
0.000678
0.000691
0.000993
0.012325
0.004483
0.010596
0.008022
0.003984
0.003229
0.001420
0.000339
0.000000
0.003814
0.000515
0.000000
0.000000
0.011774
0.000000
0.000400
0.008025
0.009035
0.007324
0.000000
0.000000
0.001923
0.000731
0.000803
0.000000
0.000000
0.010387
0.001401
0.000526
0.005072
0.010360
0.000950
0.000595
0.000534
0.000403
0.005037
0.029349
0.003895
0.003548
0.000613
0.000000
0.000000
0.000959
0.002853
0.000304
0.000000
0.000000
0.004316
0.000090
0.000000
0.000000
0.004444
0.000169
0.005493
0.000569
0.001961
0.058012
0.043076
0.025530
0.017300
0.009405
0.007419
0.004786
0.004505
0.005382
0.010125
0.010001
0.016552
0.015059
0.022652
0.063260
0.014940
0.004314
0.003542
0.027620
0.061485
0.014004
0.003584
0.003531
0.005360
0.005532
0.005986
0.001011
0.001210
0.006693
0.026580
0.002162
0.001192
0.000491
0.004516
0.035204
0.007533
0.003308
0.000171
0.000348
0.000282
0.000000
0.000294
0.000285
0.000872
0.003131
0.001324
0.001039
0.001289
0.009261
0.018895
0.009412
0.006400
0.009968
0.007539
0.000307
0.004131
0.000000
0.000000
0.000249
0.001534
0.003950
0.007895
0.004574
0.000000
0.000091
0.000356
0.002457
0.002704
0.001467
0.002068
0.002389
0.003239
0.004592
0.000128
0.000721
0.001802
0.000935
0.001223
0.000590
0.000102
0.000921
0.003621
0.000772
0.000368
0.001321
0.001623
0.002499
0.014857
0.000684
0.000000
0.000647
0.001604
0.001745
0.001367
0.009133
0.014039
0.005331
0.006301
0.003181
0.029916
0.001654
0.001105
0.001182
0.001382
0.000870
0.002352
0.019781
0.000000
0.009487
0.000000
0.000000
0.000000
0.000931
0.003951
0.004406
0.011743
0.007947
0.001832
0.011869
0.005533
0.000764
0.007628
0.003423
0.000565
0.001431
0.001320
0.005568
0.032255
0.015479
0.008075
0.003278
0.001498
0.003193
0.001625
0.000000
0.000000
0.000000
0.000077
0.002991
0.004204
0.000332
0.002915
0.000682
0.002694
0.001235
0.022684
0.023140
0.017602
0.015820
0.012030
0.007141
0.005635
0.003862
0.003757
0.007511
0.010546
0.010515
0.014415
0.036139
0.016571
0.076164
0.093074
0.101261
0.102566
0.036678
0.031917
0.006258
0.010355
0.007569
0.006679
0.001913
0.000925
0.002078
0.005763
0.014802
0.102080
0.139051
0.128021
0.180344
0.020182
0.010429
0.002544
0.000487
0.000361
0.000000
0.000000
0.000545
0.000979
0.001710
0.015033
0.101607
0.047075
0.068451
0.092637
0.016673
0.017273
0.008000
0.005480
0.018109
0.007515
0.002825
0.001336
0.000282
0.000133
0.000170
0.000272
0.000000
0.000443
0.000543
0.000504
0.000574
0.000555
0.000000
0.000623
0.001883
0.000431
0.000000
0.000380
0.000000
0.000726
0.000000
0.000000
0.001553
0.038502
0.037460
0.001182
0.034297
0.001876
0.003577
0.008271
0.046348
0.016232
0.011873
0.008190
0.013734
0.011257
0.010420
0.009871
0.008019
0.005459
0.006024
0.005826
0.006088
0.004765
0.006970
0.006331
0.009514
0.014485
0.052067
0.028108
0.013957
0.022880
0.019308
0.025170
0.031468
0.016319
0.037948
0.019258
0.027985
0.042385
0.019599
0.024111
0.034545
0.017256
0.019869
0.022974
0.017666
0.038394
0.005105
0.027974
0.022010
0.010940
0.039010
0.015233
0.016393
0.005639
0.013746
0.014105
0.007894
0.013680
0.019322
0.008600
0.020652
0.022171
0.014866
0.025944
0.024329
0.031125
0.033659
0.026492
0.043304
0.049708
0.065734
0.039965
0.069706
0.049638
0.060418
0.054223
0.075490
0.059712
0.065479
0.081742
0.076780
0.073068
0.084196
0.050654
0.067753
0.073541
0.048150
0.068112
0.038724
0.046461
0.043953
0.021272
0.030468
0.034336
0.024487
0.025451
0.013869
0.014634
0.028377
0.027570
0.042748
0.031367
0.031411
0.034536
0.040058
0.033878
0.063454
0.051347
0.036968
0.076925
0.055719
0.065101
0.070959
0.081265
0.059955
0.067670
0.076881
0.051619
0.076523
0.070702
0.056745
0.046720
0.069608
0.057621
0.042850
0.057745
0.052094
0.033173
0.038703
0.049916
0.023922
0.030549
0.020888
0.022450
0.023003
0.025881
0.008917
0.007219
0.009981
0.006132
0.005280
0.015745
0.004864
0.007252
0.000000
0.000957
0.000737
0.001166
0.000781
0.001557
0.001961
0.001277
0.002761
0.006027
0.001728
0.004000
0.002158
0.000563
0.000236
0.000298
0.000736
0.002077
0.014681
0.011444
0.012561
0.024032
0.012061
0.015389
0.014007
0.004591
0.001634
0.000205
0.000000
0.000000
0.000000
0.000000
0.000720
0.002458
0.000034
0.000196
0.000075
0.002986
0.004094
0.014310
0.025115
0.013881
0.016019
0.015151
0.012300
0.012705
0.010112
0.008344
0.005377
0.004764
0.004801
0.004803
0.005433
0.004826
0.009875
0.000000
0.002397
0.001954
0.001827
0.000816
0.000292
0.000983
0.037047
0.008987
0.018936
0.000000
0.000786
0.006230
0.007926
0.001179
0.027984
0.093360
0.000966
0.000540
0.020117
0.031309
0.012872
0.019632
0.016682
0.019129
0.018048
0.019446
0.026987
0.022241
0.028723
0.032666
0.020179
0.021953
0.019884
0.017507
0.025694
0.020242
0.013851
0.016776
0.012259
0.010971
0.024126
0.009223
0.020806
0.026699
0.009300
0.006617
0.006292
0.005435
0.004006
0.006738
0.006686
0.017911
0.007271
0.008624
0.022286
0.034654
0.019304
0.025740
0.036988
0.029971
0.026562
0.059543
0.050279
0.074082
0.035601
0.045177
0.060492
0.059469
0.056168
0.069622
0.074100
0.062874
0.082550
0.057840
0.069888
0.072518
0.059550
0.058758
0.063419
0.056032
0.037887
0.035644
0.042193
0.017283
0.031839
0.016633
0.019276
0.007642
0.006678
0.015902
0.020295
0.010299
0.047104
0.025739
0.022364
0.030287
0.036025
0.030670
0.063812
0.038501
0.034696
0.062366
0.049386
0.054423
0.084472
0.067056
0.070369
0.055851
0.077914
0.065477
0.051806
0.088500
0.056871
0.047192
0.063153
0.043811
0.062125
0.059551
0.049914
0.034495
0.042078
0.033813
0.031284
0.026061
0.015998
0.020813
0.025528
0.009414
0.010777
0.014226
0.003414
0.002407
0.000534
0.000230
0.000194
0.011114
0.000000
0.007806
0.000000
0.000000
0.000000
0.000000
0.000326
0.000998
0.001900
0.001811
0.000904
0.000509
0.000565
0.000415
0.010950
0.018449
0.014228
0.009017
0.014966
0.018128
0.000000
0.013630
0.005575
0.003401
0.001707
0.000436
0.000643
0.010130
0.025056
0.014065
0.011117
0.105325
0.053803
0.002837
0.003510
0.004466
0.007755
0.008009
0.001921
0.002308
0.001134
0.000162
0.000483
0.000000
0.004824
0.004646
0.000000
0.010750
0.023091
0.022389
0.014999
0.014889
0.011798
0.016973
0.017453
0.024335
0.023411
0.026419
0.026948
0.021072
0.018395
0.019720
0.019957
0.017746
0.019099
0.013580
0.013850
0.009316
0.010336
0.016333
0.006226
0.009296
0.021687
0.007592
0.003463
0.003067
0.003209
0.003029
0.002550
0.002649
0.002024
0.009777
0.019351
0.011585
0.017134
0.020561
0.013595
0.029775
0.024641
0.058674
0.040080
0.044482
0.038563
0.051100
0.039937
0.068138
0.049780
0.071445
0.062253
0.055546
0.072205
0.073222
0.055903
0.079732
0.050994
0.062659
0.053968
0.049367
0.058367
0.036099
0.023734
0.024208
0.027120
0.013208
0.014412
0.005880
0.007992
0.005201
0.005399
0.009007
0.007553
0.041391
0.023993
0.017696
0.035329
0.030792
0.031751
0.044673
0.026216
0.046443
0.049381
0.059083
0.044424
0.067144
0.073150
0.069114
0.055228
0.054153
0.062389
0.053435
0.057815
0.072499
0.042019
0.037582
0.068877
0.045729
0.036029
0.072964
0.035665
0.040602
0.038896
0.017673
0.024896
0.027069
0.013442
0.020570
0.015030
0.012408
0.008504
0.007775
0.002337
0.000000
0.000000
0.000000
0.000000
0.006539
0.004654
0.002431
0.001803
0.001372
0.000944
0.000909
0.001892
0.003981
0.004837
0.002365
0.001891
0.003415
0.017953
0.022632
0.015672
0.031044
0.042665
0.038678
0.036732
0.029754
0.024076
0.020606
0.018683
0.015859
0.012471
0.009702
0.007861
0.007714
0.008168
0.008988
0.001005
0.001291
0.001675
0.000000
0.073510
0.028090
0.003381
0.017109
0.009933
0.047516
0.022594
0.056835
0.019457
0.001223
0.008716
0.005370
0.002759
0.002890
0.003436
0.010515
0.026833
0.142712
0.005446
0.000783
0.000240
0.002575
0.001769
0.001469
0.002406
0.004398
0.011184
0.045590
0.005200
0.002883
0.003443
0.002808
0.003817
0.000723
0.002837
0.005037
0.031119
0.001261
0.001245
0.005392
0.003615
0.012555
0.034730
0.076523
0.121431
0.000000
0.000000
0.000123
0.001174
0.005857
0.002249
0.006197
0.000733
0.026777
0.011104
0.007143
0.007734
0.000572
0.011427
0.000907
0.001248
0.001892
0.014254
0.009207
0.000000
0.000000
0.000000
0.000000
0.000000
0.001947
0.003589
0.018554
0.016323
0.005923
0.007574
0.014020
0.095959
0.151298
0.034647
0.040229
0.058246
0.029893
0.005909
0.002437
0.003377
0.015177
0.098373
0.184401
0.066578
0.103864
0.001603
0.069874
0.048984
0.032420
0.013490
0.002060
0.001994
0.001294
0.001892
0.004348
0.008328
0.027592
0.057438
0.058152
0.017425
0.022605
0.005005
0.000594
0.000000
0.000000
0.001522
0.000389
0.001361
0.000238
0.001390
0.004710
0.017677
0.015081
0.015698
0.017347
0.013658
0.007812
0.004944
0.003235
0.003375
0.005717
0.006024
0.008840
0.013333
0.014203
0.027685
0.069660
0.047799
0.083839
0.068217
0.051487
0.023573
0.019345
0.007299
0.007794
0.005511
0.002188
0.000936
0.001791
0.006016
0.024749
0.076032
0.116837
0.125929
0.116115
0.076285
0.020113
0.007086
0.000886
0.000422
0.000000
0.000000
0.000000
0.000817
0.002217
0.006839
0.067294
0.055392
0.049726
0.074807
0.019707
0.013611
0.007057
0.001104
0.001649
0.002171
0.002374
0.002061
0.055337
0.003687
0.007212
0.008570
0.013511
0.017818
0.034230
0.037399
0.001526
0.000078
0.016788
0.000646
0.001401
0.005350
0.007034
0.019800
0.058111
0.049279
0.091547
0.052757
0.029475
0.012046
0.001612
0.001608
0.004029
0.008774
0.022177
0.021960
0.003975
0.003640
0.003860
0.003998
0.004206
0.007530
0.007678
0.033924
0.032900
0.008259
0.015380
0.032397
0.068136
0.123642
0.146545
0.233917
0.071677
0.055706
0.007074
0.005568
0.037055
0.044852
0.081451
0.025868
0.015101
0.025468
0.007932
0.002289
0.008599
0.003306
0.008332
0.014490
0.047924
0.036769
0.012812
0.008954
0.000000
0.000959
0.005007
0.015303
0.013334
0.005677
0.031145
0.056660
0.096740
0.116783
0.060825
0.024215
0.056156
0.040497
0.032968
0.004404
0.002151
0.004041
0.033575
0.064433
0.159986
0.131141
0.058009
0.074814
0.044405
0.027371
0.111215
0.086424
0.039443
0.023356
0.005263
0.003686
0.004147
0.003309
0.002890
0.004695
0.010068
0.014630
0.033798
0.043037
0.052073
0.060866
0.113927
0.290361
0.046161
0.004682
0.003292
0.000558
0.000612
0.000586
0.045295
0.009301
0.007491
0.002346
0.004935
0.003205
0.001670
0.002150
0.002204
0.002111
0.003195
0.001636
0.000122
0.000962
0.001519
0.005009
0.019977
0.021707
0.034543
0.010421
0.004879
0.003487
0.000705
0.000837
0.003937
0.006881
0.009626
0.011294
0.048409
0.050026
0.017184
0.017503
0.015417
0.010476
0.011957
0.016894
0.020318
0.027251
0.025547
0.027279
0.023474
0.020631
0.020350
0.017895
0.021118
0.014689
0.014395
0.014926
0.012219
0.013419
0.009398
0.005661
0.007969
0.014702
0.003735
0.002944
0.002553
0.002248
0.001806
0.001852
0.001777
0.002404
0.004467
0.009417
0.013877
0.010089
0.013335
0.021442
0.021693
0.021398
0.055913
0.035290
0.046345
0.038674
0.047618
0.048148
0.067886
0.049901
0.072675
0.065662
0.063054
0.052155
0.069368
0.080185
0.058032
0.057488
0.054214
0.070889
0.045520
0.041251
0.037502
0.027880
0.021615
0.018042
0.011858
0.013173
0.005227
0.005172
0.002578
0.004754
0.007073
0.008802
0.021366
0.033288
0.017499
0.020810
0.031608
0.037603
0.038998
0.035473
0.032500
0.046061
0.065021
0.035254
0.073722
0.069321
0.054037
0.047228
0.074628
0.045514
0.059143
0.070025
0.048140
0.046726
0.029701
0.046904
0.045422
0.093580
0.038859
0.078846
0.029369
0.031492
0.021824
0.023529
0.020793
0.017316
0.011331
0.008510
0.009815
0.009818
0.004722
0.001345
0.000000
0.000000
0.000000
0.002635
0.008199
0.003049
0.000306
0.004150
0.031492
0.023578
0.019446
0.021726
0.018995
0.017357
0.016203
0.012813
0.010986
0.010805
0.013449
0.004642
0.004427
0.015125
0.019529
0.015410
0.018436
0.011531
0.007349
0.004879
0.002973
0.002256
0.003686
0.005273
0.007712
0.015134
0.020829
0.035107
0.051135
0.060912
0.058553
0.052027
0.017438
0.015984
0.006111
0.002987
0.001901
0.004123
0.004665
0.035327
0.074572
0.102044
0.086396
0.103225
0.086189
0.039626
0.015045
0.003531
0.030684
0.086811
0.037318
0.010682
0.006096
0.012612
0.001178
0.000000
0.001117
0.003375
0.001431
0.001381
0.000404
0.000000
0.001658
0.002817
0.006421
0.021334
0.021916
0.013641
0.007612
0.004912
0.001696
0.000970
0.001698
0.003230
0.004212
0.006944
0.017011
0.046411
0.001969
0.005144
0.003563
0.022495
0.043243
0.016097
0.035729
0.005832
0.005557
0.014124
0.021601
0.012618
0.009505
0.007176
0.005181
0.002817
0.002210
0.002483
0.004123
0.010275
0.017381
0.022726
0.040448
0.048817
0.051532
0.047069
0.022205
0.015259
0.012441
0.005412
0.004218
0.003332
0.047325
0.057776
0.094324
0.088883
0.073574
0.088488
0.057138
0.026905
0.010969
0.007447
0.028494
0.008705
0.005713
0.016675
0.004696
0.053394
0.056510
0.037025
0.053387
0.044070
0.059658
0.072640
0.055761
0.029061
0.017050
0.028338
0.010853
0.010679
0.011997
0.001509
0.040411
0.028992
0.026403
0.013144
0.033783
0.026303
0.021828
0.018480
0.016512
0.014157
0.012382
0.011473
0.014633
0.011800
0.012083
0.012764
0.010121
0.012210
0.015879
0.028801
0.032284
0.026678
0.033150
0.029341
0.023726
0.022586
0.021126
0.021901
0.012260
0.008835
0.019526
0.007225
0.006951
0.006953
0.006829
0.004700
0.003346
0.002648
0.002618
0.002588
0.001832
0.001476
0.001782
0.005655
0.006018
0.015418
0.011257
0.016267
0.025742
0.025723
0.023723
0.055868
0.031973
0.041445
0.037313
0.056315
0.045503
0.066864
0.045915
0.076599
0.058769
0.057157
0.056420
0.073028
0.067407
0.051010
0.060587
0.062857
0.048640
0.035761
0.042991
0.033188
0.027005
0.018190
0.017075
0.017179
0.012554
0.003732
0.002026
0.002255
0.003469
0.006314
0.010570
0.013721
0.035622
0.021982
0.025499
0.022052
0.027321
0.046933
0.033779
0.030029
0.047676
0.053060
0.048294
0.050290
0.070449
0.048239
0.079523
0.047635
0.059298
0.052108
0.055762
0.058394
0.032154
0.038507
0.038059
0.051057
0.053418
0.039422
0.033387
0.055533
0.024247
0.040600
0.017975
0.017447
0.017269
0.015150
0.013943
0.006081
0.006741
0.005356
0.001495
0.000000
0.000000
0.000000
0.001737
0.004037
0.023810
0.036345
0.006756
0.002726
0.027379
0.117656
0.195560
0.016314
0.009483
0.015399
0.035587
0.060539
0.096854
0.081024
0.073124
0.116614
0.060160
0.034025
0.023944
0.004999
0.014089
0.019141
0.018586
0.020538
0.005343
0.002758
0.002895
0.007744
0.008614
0.021823
0.027044
0.006152
0.001647
0.002788
0.001028
0.005957
0.013667
0.006406
0.008719
0.010593
0.037019
0.044040
0.012343
0.004064
0.004738
0.008610
0.002818
0.001907
0.002114
0.010123
0.000595
0.005881
0.004206
0.008895
0.034536
0.064873
0.083363
0.046789
0.036637
0.053194
0.021829
0.028029
0.006633
0.005963
0.007023
0.029230
0.070899
0.080139
0.106217
0.094891
0.045214
0.056924
0.028293
0.018453
0.042590
0.085132
0.062780
0.034650
0.021142
0.009424
0.006826
0.004946
0.004815
0.004579
0.003879
0.006714
0.008028
0.017358
0.023285
0.047430
0.036601
0.027059
0.030106
0.039506
0.001464
0.001499
0.000828
0.004690
0.005989
0.013298
0.016163
0.014785
0.007189
0.065196
0.028877
0.026284
0.018322
0.011582
0.005175
0.003626
0.004076
0.005095
0.007035
0.026722
0.045048
0.043990
0.087996
0.081379
0.081259
0.082645
0.066806
0.035736
0.019977
0.010187
0.022464
0.038588
0.045345
0.040191
0.018608
0.015868
0.023793
0.056603
0.049178
0.040743
0.045233
0.051149
0.044856
0.030063
0.022067
0.023162
0.004547
0.046315
0.011870
0.014082
0.005971
0.007847
0.016189
0.033667
0.042616
0.028207
0.022041
0.005060
0.000870
0.002726
0.008879
0.032970
0.004166
0.004419
0.005804
0.047483
0.010409
0.004887
0.014026
0.015946
0.026746
0.018909
0.031996
0.012885
0.005713
0.002562
0.002864
0.002923
0.005637
0.014832
0.032029
0.042422
0.053315
0.045643
0.036212
0.024907
0.011208
0.002477
0.002041
0.004412
0.013294
0.016302
0.011783
0.004851
0.005249
0.005969
0.008306
0.013466
0.001404
0.001498
0.001790
0.002735
0.004194
0.006294
0.009677
0.016736
0.015531
0.013264
0.012574
0.012646
0.012210
0.011314
0.011027
0.009120
0.008308
0.009470
0.007709
0.010579
0.017173
0.018530
0.028062
0.040058
0.054544
0.021453
0.023991
0.038552
0.041576
0.014856
0.012834
0.009681
0.010759
0.007475
0.006968
0.005745
0.006896
0.005758
0.004548
0.002567
0.002839
0.005989
0.001597
0.001277
0.003020
0.005235
0.007617
0.014872
0.016045
0.019178
0.030869
0.029147
0.027932
0.047973
0.035993
0.045958
0.045112
0.058977
0.047353
0.055121
0.053948
0.071403
0.057670
0.058555
0.050829
0.093257
0.053172
0.049125
0.061530
0.057990
0.045330
0.038467
0.034223
0.029384
0.021377
0.021137
0.018530
0.013488
0.010030
0.005528
0.002160
0.001792
0.003223
0.005765
0.009492
0.016388
0.020906
0.029409
0.026920
0.029174
0.027025
0.032482
0.027775
0.036806
0.054591
0.052977
0.053302
0.067411
0.044288
0.089312
0.054813
0.052359
0.050280
0.061380
0.044039
0.044999
0.040773
0.040676
0.030022
0.046474
0.046626
0.036357
0.031914
0.028812
0.023910
0.016843
0.028894
0.013491
0.014887
0.011843
0.010948
0.007860
0.005419
0.002674
0.000849
0.000000
0.000380
0.001263
0.005051
0.009885
0.015393
0.042726
0.024312
0.006434
0.014620
0.017238
0.024153
0.024514
0.042322
0.009464
0.007586
0.008847
0.023189
0.016522
0.023590
0.009570
0.016040
0.003726
0.044913
0.036483
0.026111
0.020312
0.015730
0.006166
0.004970
0.006045
0.007623
0.004899
0.012217
0.029288
0.038226
0.078582
0.099815
0.097843
0.070498
0.064833
0.050038
0.033981
0.027138
0.026684
0.025512
0.047308
0.029821
0.047585
0.034470
0.019441
0.016908
0.058436
0.043226
0.038209
0.038003
0.037316
0.033172
0.036637
0.027400
0.011469
0.016062
0.053238
0.012979
0.007359
0.013150
0.002445
0.008936
0.020198
0.029523
0.035702
0.033060
0.027378
0.032405
0.019184
0.006455
0.002296
0.003194
0.007010
0.009803
0.010565
0.010735
0.008040
0.013976
0.023512
0.046788
0.077614
0.001616
0.000389
0.002325
0.005554
0.007764
0.007045
0.006704
0.004573
0.002230
0.005419
0.002600
0.001939
0.001621
0.002285
0.003133
0.003947
0.006132
0.009566
0.010064
0.011156
0.007221
0.006866
0.022553
0.056272
0.076615
0.059837
0.065538
0.085562
0.043645
0.044367
0.022385
0.020959
0.022334
0.038926
0.052042
0.034112
0.029908
0.030166
0.014309
0.010260
0.005790
0.004071
0.007514
0.006161
0.006114
0.008390
0.017727
0.023414
0.009946
0.011067
0.012046
0.011057
0.009619
0.010647
0.010134
0.010974
0.008164
0.010455
0.020657
0.025985
0.055478
0.029269
0.038330
0.036339
0.022020
0.042602
0.023049
0.011085
0.009751
0.008548
0.007376
0.006023
0.005798
0.006970
0.005451
0.003665
0.002833
0.005969
0.004550
0.001206
0.006427
0.007794
0.010738
0.013354
0.014007
0.020836
0.025034
0.031381
0.032694
0.057299
0.037403
0.027987
0.037166
0.068106
0.051347
0.046430
0.059069
0.056759
0.069052
0.063319
0.054929
0.047669
0.083407
0.060210
0.044221
0.061454
0.053960
0.052922
0.028641
0.040558
0.028546
0.018849
0.019427
0.018772
0.016346
0.010548
0.006446
0.002143
0.001919
0.004112
0.007141
0.010509
0.013450
0.019859
0.025810
0.032321
0.029492
0.031545
0.020633
0.025901
0.026218
0.041783
0.025628
0.028057
0.032159
0.049514
0.051936
0.059825
0.062546
0.057912
0.066851
0.070807
0.061132
0.039003
0.057952
0.036476
0.050480
0.051170
0.033797
0.036186
0.042691
0.051251
0.031515
0.027834
0.022857
0.018998
0.021628
0.016709
0.026024
0.012261
0.014344
0.009650
0.009221
0.006583
0.007048
0.002792
0.002365
0.000738
0.001274
0.002321
0.025626
0.050075
0.036595
0.036037
0.029374
0.017932
0.013786
0.007038
0.006946
0.010620
0.008391
0.008281
0.015455
0.023726
0.049295
0.046462
0.093008
0.079261
0.063753
0.056847
0.038409
0.039006
0.043603
0.033231
0.031725
0.035535
0.038485
0.046728
0.031605
0.032239
0.017546
0.015297
0.036220
0.040875
0.037423
0.033408
0.029488
0.029258
0.026706
0.028656
0.026417
0.020644
0.009786
0.018361
0.055016
0.022598
0.004345
0.003967
0.004341
0.016214
0.004985
0.003287
0.015367
0.027376
0.011008
0.005967
0.003989
0.002131
0.003279
0.005446
0.010543
0.015870
0.018245
0.019874
0.055537
0.086825
0.007697
0.010899
0.011487
0.012257
0.016859
0.009522
0.005984
0.005067
0.002966
0.002203
0.002094
0.003878
0.007441
0.010488
0.029018
0.024450
0.055100
0.030899
0.043367
0.051835
0.016628
0.006632
0.003003
0.001642
0.001967
0.048159
0.040809
0.040450
0.030741
0.023361
0.038151
0.023597
0.110224
0.085585
0.078722
0.040877
0.015835
0.009151
0.014514
0.034377
0.070306
0.070132
0.073843
0.029428
0.055840
0.055112
0.025439
0.031087
0.042543
0.019213
0.015999
0.016868
0.015375
0.009287
0.010617
0.019460
0.022703
0.003566
0.002354
0.003320
0.002042
0.001972
0.002144
0.002451
0.003276
0.004754
0.007029
0.009399
0.007702
0.005184
0.017192
0.041861
0.065211
0.052552
0.059219
0.039256
0.052429
0.097698
0.058053
0.029080
0.023859
0.016001
0.022409
0.040611
0.030741
0.024043
0.032393
0.019372
0.007214
0.003397
0.002564
0.002359
0.003184
0.001795
0.002950
0.002667
0.002069
0.000706
0.002632
0.009951
0.010224
0.009474
0.008658
0.009570
0.063737
0.048831
0.039309
0.035380
0.038859
0.060859
0.013905
0.011853
0.010999
0.007913
0.006327
0.006476
0.005348
0.007447
0.006016
0.004325
0.006014
0.014290
0.010084
0.005088
0.017225
0.013612
0.012895
0.013713
0.017394
0.021715
0.023083
0.043029
0.032319
0.050266
0.039931
0.031612
0.045265
0.073823
0.053321
0.040850
0.061573
0.054874
0.071742
0.061750
0.044981
0.059401
0.078071
0.063223
0.042074
0.063124
0.052942
0.039328
0.033216
0.035507
0.023585
0.019654
0.019616
0.021119
0.018136
0.014871
0.013107
0.003203
0.002767
0.005405
0.009884
0.011687
0.015279
0.019294
0.020956
0.034419
0.030472
0.014702
0.008020
0.009002
0.009187
0.008173
0.009729
0.008296
0.031460
0.008103
0.128012
0.011657
0.049815
0.008259
0.016404
0.012053
0.011232
0.008914
0.007653
0.007045
0.005723
0.011296
0.005559
0.006518
0.033790
0.011997
0.002323
0.004911
0.023749
0.019698
0.013974
0.013917
0.017652
0.018454
0.034330
0.032399
0.036732
0.057479
0.040445
0.033368
0.049175
0.067643
0.061152
0.044187
0.064463
0.081016
0.068068
0.057397
0.048444
0.057711
0.074926
0.048060
0.041365
0.069496
0.043493
0.044446
0.034213
0.020678
0.015459
0.020610
0.018719
0.017269
0.014493
0.023915
0.001085
0.001086
0.007844
0.010802
0.011141
0.014681
0.018029
0.023038
0.029376
0.028217
0.027827
0.029091
0.028645
0.098474
0.072102
0.058388
0.066478
0.070306
0.035419
0.012727
0.011110
0.018224
0.045164
0.048913
0.086521
0.069903
0.038525
0.025478
0.035696
0.037967
0.023251
0.020955
0.010302
0.006208
0.010079
0.026265
0.014423
0.009563
0.010326
0.003387
0.002568
0.002776
0.004096
0.002830
0.002734
0.002561
0.030084
0.010450
0.007414
0.008040
0.008854
0.006362
0.006115
0.004712
0.012595
0.015286
0.029084
0.035430
0.031931
0.034036
0.025907
0.016985
0.007487
0.002867
0.002163
0.001215
0.000805
0.000421
0.004308
0.002733
0.010579
0.001856
0.001710
0.002597
0.004084
0.019673
0.018249
0.027224
0.025786
0.021098
0.021720
0.026569
0.015624
0.004122
0.001915
0.002422
0.005638
0.009325
0.011779
0.014518
0.019288
0.029829
0.038954
0.061348
0.026949
0.015985
0.028171
0.052333
0.028230
0.008138
0.008844
0.012006
0.015989
0.013900
0.011673
0.009717
0.007650
0.008256
0.011827
0.016707
0.025925
0.029148
0.007626
0.001533
0.006334
0.027966
0.021492
0.018720
0.016985
0.017004
0.022155
0.039762
0.025556
0.031759
0.051617
0.033190
0.042507
0.052119
0.058370
0.052285
0.044662
0.071828
0.085304
0.050470
0.049709
0.055803
0.057913
0.080058
0.051031
0.039433
0.058471
0.044986
0.040871
0.034881
0.017368
0.019758
0.021290
0.023079
0.021696
0.018110
0.004838
0.011191
0.005403
0.005371
0.016112
0.017146
0.018147
0.018848
0.024321
0.027856
0.029967
0.026791
0.025878
0.039030
0.033396
0.024682
0.027059
0.029720
0.046071
0.046076
0.052505
0.078051
0.056629
0.053061
0.080667
0.056831
0.044221
0.044001
0.038041
0.049459
0.040614
0.049119
0.028858
0.054618
0.043380
0.037362
0.024091
0.030839
0.014315
0.031328
0.023952
0.015380
0.019748
0.013148
0.011127
0.008047
0.006259
0.007433
0.004786
0.004145
0.003015
0.001663
0.001460
0.004315
0.025881
0.023130
0.032681
0.032720
0.040115
0.023598
0.019734
0.033003
0.021750
0.018963
0.034170
0.046499
0.048517
0.047276
0.037552
0.054794
0.028060
0.039191
0.042361
0.028719
0.016620
0.011345
0.018296
0.023268
0.014553
0.010949
0.031620
0.020744
0.010600
0.011351
0.004558
0.006137
0.005680
0.005638
0.007496
0.009123
0.019755
0.025517
0.009961
0.003931
0.006261
0.026399
0.019998
0.010726
0.005902
0.007487
0.004983
0.003445
0.002129
0.001748
0.002785
0.005070
0.012499
0.018576
0.030415
0.028569
0.027510
0.030543
0.027830
0.040075
0.043486
0.053528
0.065286
0.062879
0.055851
0.070872
0.071334
0.040355
0.037662
0.040312
0.046278
0.044020
0.053871
0.029642
0.050132
0.052504
0.029677
0.033627
0.023395
0.025133
0.022524
0.019393
0.022443
0.013716
0.018477
0.010839
0.008329
0.006969
0.005049
0.004374
0.005322
0.004028
0.003477
0.063148
0.062253
0.035265
0.053868
0.065467
0.055735
0.036650
0.018037
0.011992
0.024163
0.039145
0.084019
0.051568
0.039789
0.042640
0.027076
0.032880
0.015671
0.009558
0.014043
0.009331
0.010254
0.007840
0.014393
0.011998
0.008021
0.021203
0.032067
0.037195
0.031511
0.029647
0.026715
0.027805
0.028656
0.022848
0.022834
0.021993
0.022902
0.024007
0.052714
0.015643
0.015583
0.020398
0.007293
0.009412
0.023333
0.043439
0.002697
0.002031
0.008358
0.013028
0.020540
0.031750
0.035254
0.025180
0.003435
0.003110
0.003756
0.003407
0.005787
0.002759
0.001657
0.002519
0.001913
0.002025
0.002625
0.003569
0.005014
0.006650
0.006815
0.009341
0.011487
0.008545
0.011140
0.011579
0.018249
0.010911
0.025780
0.024019
0.021982
0.034747
0.022757
0.019542
0.012211
0.012344
0.008686
0.011827
0.030324
0.029622
0.042873
0.036321
0.014226
0.010926
0.009935
0.011799
0.012809
0.021061
0.036848
0.037348
0.030899
0.029337
0.028982
0.029228
0.038424
0.040281
0.022019
0.010429
0.013379
0.015144
0.013244
0.004520
0.007413
0.017490
0.017798
0.017089
0.008411
0.005437
0.004809
0.004893
0.005325
0.006315
0.007238
0.009682
0.023405
0.017731
0.020383
0.028415
0.023951
0.032023
0.026360
0.030449
0.031825
0.025799
0.029005
0.024991
0.018910
0.022943
0.019048
0.021446
0.026272
0.059428
0.020148
0.008713
0.011098
0.014618
0.006803
0.016035
0.002239
0.001681
0.008233
0.004528
0.002332
0.001773
0.002270
0.003981
0.007121
0.017032
0.027211
0.038324
0.030758
0.022671
0.021237
0.016988
0.013027
0.010114
0.010801
0.009463
0.009799
0.019344
0.048642
0.036289
0.060684
0.062350
0.088476
0.076409
0.051718
0.048914
0.051316
0.035948
0.041907
0.037575
0.055941
0.049441
0.060364
0.039484
0.037885
0.026064
0.026160
0.019960
0.020892
0.015985
0.023984
0.019526
0.008935
0.004606
0.003237
0.003813
0.009529
0.012955
0.015519
0.025189
0.040148
0.053129
0.021348
0.007293
0.003063
0.004843
0.005439
0.006177
0.010149
0.013254
0.005825
0.009630
0.016839
0.015145
0.021224
0.023103
0.016806
0.020532
0.010564
0.005526
0.003038
0.001990
0.001931
0.002889
0.006472
0.015100
0.021107
0.028771
0.035585
0.021996
0.017046
0.018495
0.018908
0.013560
0.011329
0.014075
0.013794
0.011525
0.021262
0.039167
0.029005
0.065600
0.042225
0.077983
0.070561
0.063704
0.044993
0.044715
0.036506
0.033260
0.033723
0.041869
0.087140
0.037157
0.046148
0.039242
0.021908
0.035354
0.007269
0.003268
0.002173
0.001873
0.001549
0.001192
0.001367
0.001412
0.051588
0.046603
0.030359
0.039582
0.047638
0.052637
0.029929
0.018703
0.013108
0.032034
0.038837
0.050007
0.065666
0.030787
0.020307
0.016107
0.014104
0.011274
0.007652
0.007013
0.006725
0.005866
0.006048
0.007942
0.007647
0.003922
0.011698
0.009902
0.009554
0.010011
0.010235
0.013028
0.021885
0.028183
0.024368
0.021050
0.024503
0.023257
0.044420
0.011011
0.049172
0.023180
0.012710
0.011764
0.014604
0.003540
0.002907
0.005586
0.008170
0.008540
0.011318
0.006903
0.005107
0.006093
0.003702
0.004749
0.005067
0.006393
0.006368
0.007759
0.009789
0.011885
0.032834
0.030517
0.029966
0.032232
0.030955
0.043206
0.046248
0.063305
0.050336
0.064369
0.073824
0.042198
0.038481
0.031082
0.054627
0.054640
0.055325
0.033451
0.061196
0.037889
0.038286
0.031051
0.027144
0.027880
0.022144
0.018907
0.018283
0.013965
0.017168
0.012763
0.009431
0.007455
0.004223
0.003715
0.003756
0.002986
0.002043
0.010411
0.016419
0.025382
0.029286
0.029404
0.027042
0.017606
0.026930
0.001784
0.002630
0.003064
0.001373
0.001293
0.001761
0.002491
0.003285
0.004306
0.006609
0.015665
0.016970
0.004111
0.007443
0.009167
0.015786
0.021368
0.006736
0.006682
0.008556
0.011908
0.019932
0.025521
0.029791
0.028688
0.025606
0.017511
0.003947
0.002397
0.001556
0.001368
0.001801
0.002021
0.001661
0.008431
0.010948
0.020015
0.016150
0.022298
0.023297
0.021370
0.013218
0.016554
0.023093
0.013486
0.008930
0.005036
0.003438
0.005217
0.011422
0.012420
0.010911
0.011885
0.017974
0.016476
0.029783
0.042402
0.046052
0.003099
0.003897
0.002879
0.004089
0.003178
0.002811
0.016353
0.010296
0.022209
0.019799
0.028737
0.027950
0.002761
0.002805
0.003203
0.019808
0.021846
0.013698
0.018485
0.017409
0.018028
0.027967
0.025725
0.031433
0.034731
0.037787
0.030164
0.058270
0.050447
0.066235
0.049460
0.059947
0.071228
0.083658
0.035696
0.049755
0.057727
0.064726
0.063500
0.052483
0.033161
0.062729
0.043240
0.044212
0.023037
0.020428
0.016278
0.011641
0.009342
0.009420
0.009132
0.009473
0.010183
0.011123
0.020473
0.020830
0.021846
0.019373
0.015916
0.021021
0.026587
0.037839
0.033876
0.019930
0.016222
0.018036
0.021510
0.036967
0.006209
0.125522
0.012662
0.007442
0.014927
0.006406
0.008267
0.005857
0.003672
0.004135
0.003900
0.003891
0.005000
0.006655
0.007518
0.008019
0.007986
0.010115
0.001745
0.013338
0.019854
0.023166
0.025176
0.026210
0.023504
0.017865
0.001489
0.001166
0.001511
0.001540
0.003322
0.002500
0.002153
0.008356
0.003767
0.009420
0.016841
0.021534
0.023055
0.037576
0.040708
0.037089
0.026568
0.038711
0.032277
0.030089
0.032744
0.021076
0.020159
0.019414
0.021852
0.011051
0.080271
0.005405
0.031918
0.004920
0.006953
0.066742
0.058692
0.004063
0.004537
0.006970
0.007452
0.005348
0.004133
0.005958
0.010040
0.017937
0.016916
0.026901
0.036715
0.031655
0.035012
0.045835
0.051220
0.037490
0.016706
0.023886
0.038012
0.038997
0.049599
0.049503
0.035954
0.023961
0.019920
0.013075
0.009241
0.008314
0.006102
0.005991
0.004337
0.004037
0.004564
0.004091
0.031529
0.030755
0.034786
0.029440
0.032361
0.046808
0.043649
0.055424
0.049644
0.046463
0.060784
0.053865
0.056774
0.059238
0.087105
0.042077
0.031646
0.027733
0.048198
0.049098
0.057031
0.041995
0.033155
0.041748
0.048214
0.030300
0.035009
0.020367
0.020701
0.022798
0.016014
0.014658
0.017687
0.018124
0.013241
0.020789
0.017093
0.017519
0.019725
0.013189
0.017192
0.018809
0.013129
0.008945
0.004337
0.005296
0.032689
0.032650
0.036593
0.019568
0.018037
0.021246
0.019168
0.015954
0.013045
0.015129
0.006087
0.006740
0.003238
0.007946
0.020695
0.019343
0.028855
0.030962
0.027603
0.033574
0.031922
0.031263
0.028062
0.030368
0.039756
0.051343
0.058379
0.021590
0.022203
0.003743
0.003795
0.003763
0.003132
0.005804
0.003839
0.002565
0.002295
0.002930
0.005200
0.009397
0.027096
0.024342
0.025289
0.026027
0.026906
0.016498
0.023083
0.025137
0.012462
0.012500
0.016592
0.013716
0.053451
0.061459
0.047753
0.067694
0.051740
0.047456
0.045284
0.032546
0.048529
0.035100
0.058181
0.055522
0.047932
0.047447
0.031511
0.053173
0.045706
0.063380
0.065513
0.054580
0.057089
0.065099
0.065478
0.042405
0.039365
0.023337
0.051838
0.036235
0.066825
0.043640
0.028101
0.061718
0.033775
0.040310
0.017215
0.019868
0.017477
0.018175
0.016633
0.018816
0.020384
0.001712
0.012064
0.011701
0.009024
0.015330
0.010352
0.009340
0.009335
0.013265
0.012803
0.019153
0.017917
0.031797
0.019166
0.017465
0.015212
0.017777
0.027202
0.041882
0.037975
0.040408
0.011805
0.016891
0.019193
0.008950
0.052297
0.129747
0.032728
0.048611
0.010441
0.007107
0.010797
0.004672
0.038440
0.017712
0.010292
0.019340
0.017603
0.018329
0.016889
0.026297
0.030281
0.025828
0.045901
0.029717
0.036789
0.056655
0.039616
0.068986
0.051625
0.056775
0.075334
0.061068
0.037094
0.059610
0.062083
0.055940
0.063722
0.050410
0.036615
0.045929
0.054119
0.046648
0.023854
0.038108
0.013194
0.012226
0.017713
0.018718
0.019060
0.022867
0.028554
0.031578
0.032937
0.044140
0.032400
0.049197
0.055533
0.040401
0.067266
0.042149
0.074069
0.056368
0.053215
0.053200
0.048224
0.055183
0.058424
0.057389
0.042425
0.033245
0.044325
0.050126
0.037297
0.037076
0.024593
0.025343
0.019176
0.022815
0.017036
0.018597
0.021781
0.021357
0.017088
0.012868
0.009403
0.028578
0.010249
0.003396
0.008802
0.021038
0.015808
0.018852
0.022621
0.027751
0.026335
0.030185
0.033795
0.032728
0.027121
0.033798
0.024862
0.026449
0.033900
0.036780
0.043920
0.003368
0.003118
0.004417
0.004649
0.003150
0.004716
0.030561
0.026227
0.031917
0.036666
0.036712
0.037446
0.037136
0.024622
0.018562
0.029282
0.053464
0.034548
0.038325
0.044322
0.038987
0.023992
0.027153
0.014866
0.012121
0.008691
0.007172
0.006251
0.006136
0.004527
0.003368
0.019523
0.024552
0.014559
0.016407
0.014647
0.013581
0.009307
0.007430
0.010368
0.016310
0.018878
0.035014
0.027166
0.037015
0.026816
0.041005
0.057551
0.044608
0.047268
0.031575
0.032587
0.040768
0.028200
0.016671
0.016708
0.015235
0.027785
0.005208
0.016431
0.004040
0.004378
0.012079
0.010803
0.010495
0.011225
0.016971
0.012440
0.009866
0.010640
0.008735
0.008890
0.020804
0.012207
0.017596
0.020038
0.018652
0.017962
0.015144
0.015672
0.019816
0.021560
0.028694
0.040040
0.046817
0.058052
0.003444
0.010405
0.010257
0.034251
0.010597
0.043596
0.027959
0.020913
0.006813
0.005511
0.007875
0.004536
0.003643
0.003360
0.004230
0.004904
0.005661
0.006186
0.006417
0.005773
0.005539
0.074013
0.086145
0.004057
0.003934
0.005454
0.008547
0.004142
0.003200
0.002725
0.003488
0.005422
0.009071
0.026585
0.020506
0.017329
0.017073
0.026304
0.013416
0.014981
0.017857
0.022636
0.018848
0.018934
0.013130
0.017456
0.025831
0.038366
0.031223
0.057034
0.048065
0.055711
0.056308
0.046621
0.046911
0.066984
0.033578
0.041908
0.032849
0.046830
0.048270
0.067704
0.037681
0.056286
0.029920
0.040385
0.063800
0.075308
0.053899
0.046116
0.036343
0.026749
0.039120
0.046751
0.045025
0.056114
0.027763
0.035168
0.022902
0.025046
0.029922
0.017471
0.017325
0.012357
0.019052
0.019713
0.021734
0.020236
0.018533
0.018431
0.022701
0.017064
0.014817
0.013107
0.017423
0.041072
0.009293
0.019199
0.003960
0.011110
0.019216
0.016766
0.014556
0.020844
0.025384
0.026274
0.028129
0.033941
0.027188
0.028966
0.029050
0.023099
0.024616
0.034440
0.028333
0.043689
0.058820
0.054761
0.069602
0.051753
0.026822
0.025599
0.048139
0.031301
0.031575
0.034357
0.035930
0.028808
0.024509
0.023473
0.043863
0.036283
0.030219
0.041006
0.034723
0.029243
0.025940
0.016922
0.014376
0.012298
0.010473
0.009635
0.007466
0.004586
0.004843
0.005890
0.006277
0.049853
0.038566
0.032528
0.041288
0.049863
0.047094
0.028319
0.036109
0.028824
0.004265
0.003622
0.003667
0.004136
0.005169
0.011389
0.009623
0.012699
0.017011
0.012337
0.021433
0.014287
0.014835
0.010209
0.017133
0.018389
0.021800
0.019488
0.023460
0.037810
0.041797
0.043322
0.040120
0.044824
0.048154
0.046474
0.061059
0.033673
0.048127
0.036469
0.054130
0.059135
0.051478
0.045809
0.042026
0.076994
0.034241
0.050451
0.058979
0.014871
0.020724
0.014207
0.012939
0.013337
0.016646
0.007399
0.015563
0.020397
0.021141
0.026641
0.037505
0.029930
0.038312
0.026786
0.007534
0.008440
0.009449
0.013625
0.020095
0.016314
0.013442
0.009785
0.009488
0.011679
0.011961
0.009614
0.010895
0.017464
0.017839
0.017106
0.015743
0.015650
0.012178
0.023728
0.020684
0.046795
0.024675
0.063803
0.046900
0.001627
0.007584
0.009362
0.019339
0.011449
0.038899
0.049464
0.042725
0.070986
0.028175
0.028258
0.025919
0.013246
0.007077
0.004184
0.003623
0.003356
0.003217
0.004006
0.003518
0.004280
0.004900
0.005415
0.004938
0.004802
0.029484
0.030209
0.031234
0.030061
0.022648
0.029159
0.017480
0.028771
0.032461
0.035295
0.030842
0.056478
0.046640
0.062398
0.048874
0.052285
0.056957
0.037497
0.049508
0.057669
0.032913
0.081380
0.057821
0.057901
0.056252
0.051988
0.048798
0.049063
0.061304
0.058008
0.060285
0.041778
0.029426
0.044348
0.038305
0.042581
0.027764
0.032677
0.047780
0.037781
0.033630
0.038745
0.037479
0.029491
0.025684
0.034005
0.040511
0.039102
0.031663
0.038812
0.027631
0.023373
0.021145
0.013303
0.012567
0.016036
0.013699
0.014952
0.021361
0.016379
0.014494
0.024201
0.024065
0.033980
0.038353
0.041519
0.059670
0.025578
0.054941
0.040234
0.034535
0.033429
0.003992
0.004167
0.004390
0.006874
0.010677
0.018517
0.015431
0.015013
0.020880
0.022578
0.059437
0.026422
0.012945
0.013280
0.010337
0.005568
0.004083
0.003028
0.003109
0.004257
0.003619
0.003726
0.004074
0.004683
0.005250
0.004816
0.004183
0.075542
0.035154
0.068399
0.055396
0.037713
0.065703
0.041975
0.061067
0.052042
0.052581
0.073606
0.060957
0.055966
0.037455
0.038924
0.041989
0.036470
0.029534
0.026225
0.018013
0.019580
0.018062
0.018937
0.020496
0.016280
0.015219
0.009588
0.021420
0.056268
0.009547
0.009296
0.007815
0.056100
0.059865
0.042554
0.042440
0.028178
0.049943
0.039093
0.036164
0.059582
0.035286
0.030240
0.023821
0.028889
0.032809
0.022423
0.037945
0.041046
0.033189
0.045056
0.049115
0.062069
0.027765
0.032069
0.026850
0.028758
0.016824
0.019149
0.030743
0.031993
0.040731
0.031889
0.059062
0.050972
0.043913
0.050522
0.047034
0.054568
0.062119
0.047861
0.048080
0.038767
0.035224
0.036929
0.040904
0.036591
0.047597
0.046950
0.039764
0.022996
0.028917
0.029552
0.016860
0.033797
0.036835
0.031156
0.034855
0.031692
0.031601
0.031794
0.027621
0.041573
0.035427
0.048913
0.051176
0.036635
0.037490
0.072349
0.050232
0.046874
0.064712
0.051194
0.055604
0.042615
0.059618
0.008896
0.009659
0.013964
0.015010
0.021804
0.024408
0.018823
0.019010
0.022173
0.028310
0.027674
0.016666
0.036634
0.034954
0.026349
0.023309
0.024564
0.037944
0.036966
0.038839
0.034449
0.029575
0.019988
0.028368
0.029679
0.044707
0.026482
0.027871
0.021305
0.018348
0.016769
0.015886
0.014471
0.011593
0.009559
0.010193
0.011298
0.012608
0.068480
0.035427
0.039769
0.046641
0.059764
0.044711
0.054173
0.047468
0.057710
0.061345
0.070420
0.041474
0.039308
0.037352
0.034474
0.024563
0.026051
0.025000
0.018706
0.018405
0.018305
0.020676
0.019608
0.013281
0.011570
0.013518
0.028252
0.050527
0.010653
0.019619
0.012227
0.022840
0.016098
0.016467
0.013021
0.022445
0.025507
0.026355
0.026143
0.019340
0.014690
0.019518
0.039859
0.024514
0.044045
0.033987
0.004291
0.004022
0.008811
0.052510
0.034250
0.023152
0.009969
0.007087
0.004572
0.003294
0.004069
0.004332
0.004207
0.004947
0.004770
0.004745
0.004752
0.005930
0.006115
0.049548
0.012094
0.012437
0.013310
0.016541
0.020596
0.019038
0.017976
0.015280
0.024588
0.033593
0.082671
0.039523
0.020140
0.002122
0.013028
0.006287
0.015071
0.031820
0.035277
0.039676
0.042110
0.031316
0.035793
0.027784
0.021196
0.047080
0.040648
0.028654
0.045964
0.028466
0.028192
0.030683
0.016529
0.029630
0.016907
0.025260
0.014844
0.008845
0.009677
0.011828
0.039428
0.041271
0.045542
0.041874
0.041911
0.039945
0.051143
0.050274
0.033071
0.043564
0.055915
0.034277
0.048570
0.042644
0.039159
0.041683
0.047833
0.053601
0.049702
0.049060
0.057638
0.042330
0.039366
0.042194
0.027130
0.045034
0.036728
0.050096
0.052740
0.037130
0.048472
0.047700
0.062761
0.053615
0.059703
0.036320
0.036870
0.027158
0.028482
0.020166
0.022429
0.021485
0.019758
0.017093
0.018557
0.020473
0.019094
0.014252
0.011080
0.014767
0.020201
0.016005
0.012634
0.016498
0.042677
0.016424
0.010309
0.025626
0.016146
0.014997
0.015059
0.023824
0.023006
0.023344
0.022003
0.018959
0.014183
0.010895
0.044702
0.035871
0.025652
0.036339
0.007909
0.010666
0.017368
0.017486
0.019399
0.018057
0.032478
0.030054
0.030499
0.025901
0.018813
0.023806
0.032521
0.026184
0.065586
0.093675
0.031102
0.028735
0.052853
0.037734
0.034209
0.026041
0.027822
0.040022
0.044854
0.004672
0.005122
0.006273
0.008379
0.008049
0.005282
0.005065
0.006103
0.006514
0.080212
0.035865
0.047210
0.046371
0.046200
0.055586
0.053778
0.046899
0.042471
0.035181
0.025530
0.025697
0.016039
0.018290
0.019298
0.019544
0.016714
0.018893
0.019949
0.019138
0.015032
0.012691
0.013299
0.015018
0.005509
0.015677
0.010060
0.060798
0.004443
0.008319
0.029281
0.009249
0.027166
0.016859
0.023039
0.021868
0.020986
0.019651
0.017321
0.016932
0.015415
0.016976
0.023871
0.029701
0.014746
0.022049
0.026047
0.036980
0.037529
0.037495
0.042675
0.044748
0.041700
0.058989
0.058384
0.049332
0.037589
0.010724
0.002170
0.014567
0.019028
0.029908
0.021054
0.020271
0.015712
0.030494
0.044389
0.048829
0.031620
0.035458
0.038608
0.027967
0.035188
0.042412
0.043143
0.035752
0.042581
0.034870
0.038352
0.026237
0.032087
0.015100
0.030011
0.026940
0.035199
0.018208
0.010139
0.011746
0.011553
0.012319
0.006252
0.008698
0.015041
0.021323
0.016075
0.012700
0.024868
0.032125
0.027112
0.021524
0.028524
0.025566
0.028655
0.028764
0.027564
0.021975
0.028207
0.037791
0.045723
0.061147
0.051451
0.045484
0.059613
0.032225
0.046621
0.041287
0.035427
0.048901
0.053345
0.041816
0.013876
0.010788
0.005166
0.033666
0.032814
0.001888
0.014142
0.006115
0.014427
0.017326
0.016150
0.021952
0.030054
0.036683
0.027613
0.017977
0.006056
0.006431
0.009529
0.043248
0.058267
0.038315
0.067014
0.071583
0.041869
0.038085
0.032683
0.029499
0.016368
0.021187
0.016205
0.018439
0.017927
0.016648
0.016493
0.019931
0.021449
0.020979
0.014758
0.014926
0.010473
0.010983
0.004718
0.017120
0.010567
0.060646
0.040887
0.045895
0.033019
0.034281
0.047532
0.019295
0.028634
0.015622
0.024034
0.019091
0.019190
0.012553
0.010998
0.011622
0.013497
0.014944
0.016410
0.017257
0.017995
0.022347
0.014545
0.007302
0.019003
0.032565
0.033010
0.034498
0.057597
0.047122
0.040243
0.038944
0.058178
0.037606
0.049048
0.043217
0.037319
0.038778
0.035812
0.033367
0.024775
0.046348
0.037797
0.041393
0.054942
0.050744
0.032403
0.045665
0.040287
0.026237
0.016390
0.016640
0.012983
0.011858
0.008065
0.008879
0.015355
0.019663
0.014320
0.013757
0.025696
0.017031
0.020153
0.023114
0.028603
0.038459
0.032701
0.043400
0.043524
0.045232
0.033252
0.050887
0.044641
0.038163
0.030036
0.035989
0.036942
0.050418
0.044650
0.055864
0.024411
0.047261
0.033892
0.038237
0.036453
0.037552
0.022794
0.025988
0.018009
0.020035
0.013458
0.015344
0.016967
0.015343
0.016258
0.019813
0.021409
0.024194
0.016833
0.012648
0.011087
0.013173
0.009340
0.011855
0.019383
0.008690
0.032950
0.017631
0.023219
0.021905
0.017158
0.023794
0.019606
0.019059
0.016843
0.015336
0.014729
0.018098
0.016046
0.021959
0.022467
0.018266
0.016796
0.013986
0.013024
0.020886
0.034527
0.033746
0.021471
0.014205
0.014245
0.006693
0.004992
0.012205
0.014884
0.021207
0.019221
0.034908
0.024009
0.019268
0.014929
0.010961
0.008233
0.005128
0.011467
0.011636
0.014509
0.013950
0.012193
0.011513
0.014221
0.016603
0.018253
0.046914
0.042428
0.039029
0.047168
0.044495
0.010775
0.011584
0.023641
0.014468
0.009637
0.010528
0.013386
0.031394
0.024094
0.035694
0.035134
0.042210
0.044723
0.042280
0.067037
0.015682
0.016547
0.015496
0.014043
0.011707
0.012245
0.013684
0.015148
0.030551
0.014330
0.023081
0.021112
0.017769
0.014081
0.010729
0.011524
0.009254
0.007069
0.011600
0.010507
0.021129
0.012446
0.012098
0.010207
0.012792
0.015488
0.010302
0.021976
0.019360
0.029097
0.019784
0.013863
0.031050
0.029262
0.021056
0.013570
0.014258
0.013596
0.014048
0.018282
0.025554
0.013331
0.015119
0.013044
0.010137
0.012715
0.013834
0.009987
0.016242
0.007740
0.011131
0.000365
0.001034
0.001934
0.000495
0.000003
0.000000
0.067972
0.291835
0.022687
0.015564
0.020554
0.045361
0.023249
0.024165
0.022178
0.033524
0.019765
0.041814
0.002096
0.007408
0.003651
0.004103
0.006562
0.028969
0.010704
0.012483
0.028672
0.020438
0.038117
0.035997
0.032413
0.036660
0.037087
0.024685
0.020096
0.016372
0.003584
0.004557
0.005157
0.002594
0.003041
0.002903
0.002843
0.004031
0.003596
0.019931
0.030447
0.030940
0.005318
0.004497
0.004446
0.014505
0.019555
0.015610
0.011152
0.019942
0.012006
0.029421
0.019268
0.034696
0.053076
0.044339
0.030009
0.052306
0.034007
0.016942
0.011957
0.017978
0.053161
0.041243
0.028382
0.020511
0.013838
0.029931
0.028944
0.018836
0.014236
0.016009
0.005592
0.006432
0.008328
0.004693
0.004906
0.005923
0.042592
0.054063
0.041404
0.002656
0.026780
0.026366
0.044709
0.016538
0.012560
0.001463
0.001069
0.025099
0.024826
0.021046
0.012818
0.039776
0.025346
0.007534
0.016040
0.019273
0.011517
0.002545
0.005788
0.000863
0.004847
0.003768
0.004726
0.003874
0.002214
0.001553
0.001000
0.002666
0.023864
0.015038
0.002816
0.000533
0.001260
0.000833
0.000892
0.000000
0.000055
0.002890
0.000000
0.000000
0.000590
0.002564
0.000847
0.001256
0.002571
0.000898
0.001113
0.000139
0.000044
0.000557
0.000000
0.000684
0.015266
0.003530
0.003873
0.002942
0.002665
0.000525
0.000028
0.000000
0.000000
0.000250
0.000367
0.000491
0.001239
0.000731
0.001103
0.002771
0.005864
0.006218
0.007281
0.004332
0.000847
0.004330
0.027365
0.036260
0.040331
0.038154
0.040618
0.045061
0.041391
0.039610
0.036306
0.026903
0.021225
0.023164
0.015633
0.010223
0.008969
0.008559
0.006537
0.017409
0.019312
0.023525
0.022201
0.004469
0.042048
0.032917
0.033618
0.031530
0.045208
0.039731
0.034340
0.032500
0.027010
0.023960
0.024141
0.024226
0.024577
0.029139
0.034301
0.040358
0.049095
0.050924
0.035256
0.067179
0.008974
0.016161
0.005725
0.004439
0.002176
0.000517
0.003047
0.009898
0.000374
0.000544
0.002178
0.004391
0.015546
0.008923
0.011724
0.016051
0.013718
0.010983
0.018420
0.010830
0.021146
0.030260
0.031795
0.041022
0.037750
0.076782
0.034755
0.082106
0.047090
0.090270
0.063022
0.097292
0.089798
0.079163
0.069937
0.071479
0.073243
0.064102
0.058414
0.058508
0.049692
0.060988
0.033467
0.030012
0.041329
0.026602
0.027616
0.009721
0.015423
0.011812
0.011882
0.034276
0.010186
0.019602
0.021942
0.022028
0.017184
0.035830
0.018143
0.031362
0.034631
0.032361
0.048006
0.008483
0.008013
0.001966
0.003471
0.001106
0.006937
0.000575
0.000669
0.000825
0.000619
0.000752
0.001602
0.004329
0.000000
0.001309
0.000514
0.003381
0.001567
0.000334
0.006842
0.000638
0.000232
0.001147
0.006263
0.002727
0.005718
0.002429
0.001393
0.013777
0.007680
0.009550
0.002805
0.001649
0.004359
0.000000
0.021382
0.058304
0.041055
0.102543
0.023624
0.008382
0.005623
0.006293
0.006808
0.008476
0.005628
0.003859
0.006281
0.024828
0.024823
0.021431
0.013433
0.014274
0.001438
0.001741
0.004148
0.000997
0.000000
0.003838
0.000000
0.000000
0.002967
0.000902
0.003182
0.006368
0.000544
0.002108
0.000464
0.000000
0.002503
0.000030
0.000274
0.001539
0.001658
0.001522
0.002337
0.004468
0.002011
0.000000
0.000000
0.000000
0.000000
0.000377
0.000327
0.001204
0.001744
0.001538
0.001730
0.002579
0.006866
0.004535
0.004975
0.001586
0.001328
0.003267
0.002842
0.005444
0.005913
0.010399
0.006294
0.004582
0.046491
0.029440
0.008060
0.005135
0.002291
0.000000
0.000000
0.000000
0.000000
0.000000
0.000000
0.000081
0.000668
0.003088
0.006387
0.018129
0.016309
0.012705
0.008874
0.011794
0.009173
0.017518
0.025770
0.028678
0.030734
0.032715
0.073376
0.047245
0.047996
0.070452
0.083041
0.072261
0.084735
0.078670
0.073877
0.066091
0.075988
0.063761
0.063500
0.049483
0.050647
0.053539
0.044742
0.033971
0.034588
0.031245
0.029435
0.007473
0.010149
0.008497
0.007618
0.024393
0.014470
0.020144
0.016772
0.015142
0.024436
0.019368
0.021806
0.024095
0.033409
0.034964
0.068413
0.056918
0.017964
0.001056
0.001018
0.001463
0.000904
0.003732
0.004076
0.000958
0.001385
0.000908
0.014395
0.003760
0.006542
0.000471
0.002128
0.001058
0.005008
0.125906
0.035525
0.015364
0.003173
0.005111
0.030833
0.008808
0.013329
0.014758
0.017175
0.001800
0.018456
0.000213
0.000872
0.002703
0.003440
0.004351
0.007539
0.005238
0.007923
0.004539
0.003406
0.000489
0.010414
0.008319
0.001040
0.001547
0.007933
0.002130
0.033917
0.053385
0.091041
0.089566
0.050922
0.042131
0.016886
0.018213
0.007013
0.007380
0.016797
0.046435
0.010433
0.001808
0.019883
0.038049
0.041092
0.022251
0.011992
0.010654
0.014975
0.011985
0.008179
0.010489
0.011768
0.008255
0.012120
0.011155
0.030143
0.031731
0.032841
0.039716
0.026066
0.042678
0.017287
0.021898
0.025958
0.016016
0.016077
0.009835
0.008516
0.029268
0.037110
0.039338
0.018066
0.021178
0.021724
0.026063
0.022882
0.015417
0.017458
0.011537
0.010565
0.005843
0.009975
0.000756
0.037910
0.011443
0.003960
0.005396
0.013146
0.012696
0.003362
0.001877
0.006440
0.032859
0.000666
0.006935
0.004381
0.003224
0.003016
0.001766
0.003315
0.003957
0.000000
0.000053
0.000339
0.000000
0.000917
0.001906
0.003507
0.003449
0.000810
0.002079
0.003243
0.006638
0.003169
0.003129
0.002263
0.001843
0.001823
0.002879
0.004845
0.011472
0.009744
0.005771
0.019961
0.033155
0.025857
0.024013
0.032148
0.030795
0.026082
0.024861
0.017758
0.021781
0.025823
0.011779
0.022297
0.023941
0.061926
0.061050
0.031704
0.010830
0.082375
0.071198
0.065815
0.001148
0.009792
0.001446
0.032221
0.007714
0.007756
0.011741
0.006321
0.005790
0.002651
0.000000
0.000000
0.000000
0.000000
0.009079
0.000000
0.000368
0.000164
0.001572
0.003540
0.015217
0.011484
0.009900
0.007228
0.009772
0.008416
0.013444
0.019018
0.029111
0.027198
0.034504
0.049909
0.045067
0.046060
0.038711
0.062214
0.057911
0.065550
0.062092
0.071939
0.068906
0.076790
0.068792
0.080506
0.056376
0.062912
0.069172
0.059719
0.054726
0.046923
0.051725
0.035972
0.032646
0.032437
0.034441
0.030499
0.011772
0.003471
0.005411
0.010030
0.012287
0.011619
0.024673
0.018822
0.017379
0.017643
0.018419
0.018628
0.024861
0.004660
0.005924
0.005758
0.010143
0.007772
0.002780
0.003171
0.006100
0.073030
0.009399
0.007159
0.003023
0.003520
0.007997
0.024192
0.044861
0.049771
0.051529
0.038086
0.022191
0.013676
0.015499
0.016414
0.022433
0.010157
0.012964
0.015744
0.000998
0.010137
0.038249
0.014354
0.010818
0.009351
0.008779
0.011949
0.006062
0.008927
0.006578
0.010918
0.005917
0.053403
0.058278
0.010074
0.093953
0.003879
0.003878
0.028042
0.023916
0.012740
0.029450
0.023924
0.063286
0.055108
0.048060
0.008775
0.029531
0.010212
0.006063
0.007993
0.028990
0.015750
0.155867
0.133645
0.021305
0.033224
0.020124
0.016329
0.020041
0.057230
0.045993
0.045614
0.022892
0.026697
0.008846
0.072434
0.057222
0.010413
0.013331
0.004687
0.003669
0.002627
0.001676
0.001520
0.003217
0.000675
0.000301
0.000314
0.001050
0.001851
0.002903
0.002992
0.003846
0.000000
0.000000
0.002826
0.001069
0.005708
0.002782
0.002647
0.002691
0.001772
0.002803
0.003829
0.006808
0.015466
0.076258
0.005436
0.000000
0.000000
0.000000
0.000000
0.000599
0.001492
0.002029
0.000998
0.003776
0.004019
0.006941
0.008871
0.007257
0.009546
0.007788
0.010067
0.018755
0.026463
0.027537
0.029114
0.038877
0.050177
0.038202
0.044420
0.050181
0.060594
0.042199
0.049021
0.047228
0.095318
0.058620
0.067734
0.067016
0.076048
0.071715
0.060339
0.053171
0.069065
0.057399
0.049698
0.050267
0.044741
0.041394
0.035000
0.030770
0.033574
0.036603
0.011845
0.006770
0.002992
0.005159
0.012417
0.012912
0.017293
0.023912
0.019963
0.021001
0.015996
0.018669
0.008712
0.011102
0.013866
0.015745
0.014572
0.015772
0.018097
0.027118
0.021627
0.033248
0.037180
0.034380
0.048630
0.029283
0.036107
0.045280
0.060231
0.023360
0.023377
0.009552
0.074449
0.070954
0.035486
0.025327
0.001515
0.005936
0.006463
0.014569
0.006665
0.008422
0.008150
0.010212
0.005964
0.004476
0.006884
0.020227
0.028633
0.039476
0.018095
0.004453
0.002065
0.004956
0.021483
0.039471
0.045608
0.045416
0.049630
0.039483
0.045116
0.040511
0.033830
0.021480
0.017612
0.015307
0.019932
0.032658
0.016934
0.036992
0.004084
0.001816
0.005679
0.004880
0.038691
0.017009
0.018280
0.016082
0.003658
0.001938
0.000151
0.002652
0.008975
0.009916
0.005297
0.000000
0.000000
0.000000
0.022929
0.010149
0.000000
0.000473
0.001828
0.004147
0.006777
0.010435
0.008724
0.009888
0.010216
0.010084
0.011831
0.006465
0.012720
0.020252
0.022725
0.026438
0.026730
0.034869
0.046829
0.036251
0.033136
0.044165
0.040059
0.042091
0.043248
0.049219
0.071804
0.021928
0.014456
0.010413
0.001860
0.002525
0.005175
0.020545
0.002277
0.005001
0.018658
0.011035
0.006818
0.005864
0.003468
0.002355
0.002656
0.003765
0.005726
0.011412
0.015853
0.016553
0.029680
0.029669
0.030588
0.033516
0.023158
0.035214
0.045946
0.058650
0.018990
0.035870
0.023863
0.022359
0.066265
0.057030
0.020539
0.032325
0.007369
0.006532
0.010180
0.010160
0.014464
0.011495
0.010494
0.021789
0.042339
0.040175
0.061132
0.084599
0.113781
0.109942
0.082515
0.035196
0.025373
0.017056
0.017906
0.024555
0.043146
0.051592
0.059640
0.018803
0.037588
0.052875
0.039923
0.021094
0.013300
0.008370
0.005640
0.004426
0.002980
0.002034
0.002497
0.000924
0.063642
0.062090
0.068603
0.071072
0.066821
0.057268
0.055336
0.059247
0.052453
0.052320
0.037539
0.041450
0.033633
0.027484
0.023238
0.031727
0.012784
0.007597
0.003447
0.003194
0.010253
0.015962
0.010982
0.023406
0.029586
0.020652
0.001993
0.001747
0.005116
0.010137
0.041023
0.000656
0.000000
0.003616
0.009952
0.014252
0.011917
0.010508
0.012160
0.009886
0.003531
0.002044
0.003604
0.004502
0.007670
0.005354
0.031492
0.024109
0.027185
0.023159
0.020187
0.027685
0.048419
0.104975
0.047792
0.041205
0.059810
0.024640
0.030532
0.044628
0.058528
0.022559
0.019466
0.006810
0.008040
0.010298
0.013103
0.012223
0.004968
0.005929
0.011379
0.020950
0.027895
0.019171
0.006944
0.001508
0.005583
0.020674
0.045994
0.027800
0.045582
0.042705
0.041098
0.031846
0.001422
0.000630
0.009111
0.034053
0.010755
0.003771
0.003042
0.005984
0.043699
0.013527
0.033375
0.005082
0.008112
0.005434
0.010099
0.014798
0.015373
0.011728
0.010013
0.011459
0.012379
0.009994
0.006710
0.017435
0.021976
0.023353
0.032574
0.029555
0.031288
0.037976
0.036951
0.046922
0.038520
0.040063
0.040497
0.046223
0.046671
0.062123
0.028305
0.037898
0.032556
0.031768
0.036613
0.027257
0.020812
0.045064
0.050064
0.045750
0.034549
0.029563
0.027766
0.019577
0.024375
0.013911
0.009773
0.020943
0.004645
0.060807
0.055648
0.070230
0.068782
0.056541
0.059068
0.046723
0.058816
0.051402
0.055024
0.050685
0.042417
0.052404
0.038896
0.040614
0.027841
0.027488
0.023366
0.022137
0.018949
0.011137
0.005232
0.004208
0.010712
0.016129
0.012890
0.019954
0.002344
0.003488
0.007364
0.016051
0.015664
0.088208
0.060983
0.044805
0.167783
0.055700
0.044245
0.034836
0.021077
0.018086
0.014635
0.005087
0.003850
0.002773
0.003189
0.004839
0.003952
0.038317
0.024756
0.026201
0.032572
0.025961
0.032178
0.026883
0.013617
0.032720
0.035378
0.032707
0.022995
0.020620
0.020493
0.013514
0.017740
0.012203
0.008973
0.005851
0.015218
0.011876
0.002420
0.002251
0.074006
0.057371
0.041308
0.030428
0.036245
0.027854
0.033926
0.049333
0.050335
0.044895
0.043133
0.021557
0.021906
0.065506
0.033543
0.022029
0.014018
0.011830
0.008210
0.007618
0.006172
0.002486
0.039156
0.017595
0.018794
0.024729
0.047876
0.084318
0.036722
0.026263
0.025653
0.024152
0.033229
0.025440
0.030783
0.019154
0.039801
0.038929
0.048695
0.056436
0.013103
0.012930
0.008520
0.006672
0.020143
0.023505
0.027499
0.029392
0.032614
0.036090
0.029455
0.032921
0.033858
0.060362
0.054504
0.055062
0.043882
0.048996
0.043659
0.057680
0.051777
0.053162
0.057705
0.069514
0.056226
0.058610
0.047424
0.048631
0.013706
0.013099
0.010287
0.007802
0.020749
0.022231
0.029118
0.028380
0.035521
0.029170
0.026127
0.015380
0.019899
0.011668
0.012514
0.021704
0.025886
0.024938
0.024086
0.051690
0.047826
0.045978
0.044763
0.028111
0.037292
0.027250
0.024155
0.019031
0.020687
0.018785
0.006882
0.005172
0.012436
0.020711
0.012856
0.018334
0.011857
0.010375
0.013424
0.014108
0.017136
0.017646
0.003369
0.006760
0.013428
0.022426
0.021334
0.008410
0.002818
0.004100
0.033410
0.013897
0.016801
0.012780
0.013320
0.041470
0.014556
0.018180
0.015452
0.013502
0.011421
0.009424
0.006712
0.066706
0.037820
0.014753
0.016157
0.009965
0.017008
0.041047
0.055387
0.046925
0.036662
0.048509
0.085074
0.063611
0.055195
0.042797
0.028796
0.024649
0.022435
0.008696
0.004895
0.002032
0.002130
0.003560
0.003754
0.033688
0.047475
0.044548
0.052930
0.054856
0.064346
0.063065
0.070652
0.076881
0.084932
0.069915
0.062298
0.057782
0.039743
0.053261
0.056712
0.031037
0.034946
0.031016
0.049070
0.018756
0.025240
0.056233
0.027532
0.031744
0.041336
0.041398
0.046645
0.041248
0.062055
0.048872
0.056182
0.052716
0.058523
0.050422
0.060389
0.056235
0.061148
0.048768
0.048673
0.053435
0.054769
0.037216
0.030689
0.046063
0.023733
0.031012
0.024066
0.031266
0.039170
0.037148
0.046423
0.044652
0.041930
0.050083
0.049829
0.055090
0.055100
0.071459
0.042744
0.063933
0.051004
0.048719
0.050351
0.049534
0.053873
0.051950
0.039118
0.043232
0.035864
0.024991
0.022974
0.019947
0.020588
0.019546
0.013418
0.009203
0.010982
0.031549
0.080296
0.061240
0.063718
0.041578
0.044738
0.036346
0.020883
0.023055
0.033824
0.026282
0.033851
0.037631
0.035940
0.071573
0.064966
0.065966
0.049128
0.046497
0.059178
0.037557
0.025244
0.022029
0.023999
0.022419
0.020425
0.020281
0.017940
0.020452
0.017993
0.029694
0.037341
0.029042
0.017837
0.013048
0.011366
0.014191
0.015947
0.021140
0.035585
0.036736
0.016111
0.024155
0.038882
0.038421
0.022510
0.031754
0.045065
0.058360
0.057329
0.044053
0.040760
0.037445
0.029653
0.027910
0.025571
0.020338
0.009463
0.003617
0.002279
0.001776
0.002682
0.003361
0.026997
0.008853
0.015755
0.020178
0.014597
0.005908
0.004207
0.018644
0.025659
0.026063
0.023060
0.019978
0.017923
0.038018
0.014991
0.011983
0.017315
0.039732
0.060409
0.044887
0.059978
0.048268
0.060154
0.058582
0.048557
0.048923
0.048392
0.049677
0.047057
0.048880
0.039437
0.008374
0.017256
0.021341
0.021961
0.024476
0.028535
0.027082
0.017989
0.015644
0.018035
0.016688
0.019206
0.021878
0.030474
0.056341
0.055900
0.046879
0.041860
0.048891
0.051718
0.051533
0.054551
0.026732
0.034348
0.025171
0.019320
0.017470
0.034265
0.036826
0.040718
0.055047
0.050625
0.040903
0.034937
0.035319
0.031475
0.030775
0.022412
0.024269
0.008001
0.005096
0.002499
0.002543
0.003600
0.027014
0.030467
0.029495
0.025417
0.022675
0.033269
0.028872
0.023315
0.019294
0.019560
0.019578
0.017271
0.013617
0.021841
0.037273
0.011108
0.013925
0.018213
0.015059
0.005101
0.008388
0.018665
0.026161
0.029715
0.027689
0.031029
0.025093
0.031894
0.016675
0.017475
0.026512
0.017965
0.018553
0.022709
0.018635
0.018596
0.020864
0.019644
0.021486
0.022630
0.034930
0.046251
0.050188
0.043967
0.041860
0.027368
0.031734
0.024133
0.024368
0.015799
0.046013
0.039533
0.013556
0.016284
0.017965
0.020668
0.025662
0.043278
0.033761
0.042966
0.053915
0.040184
0.053561
0.049784
0.048201
0.050457
0.050424
0.039054
0.029616
0.022821
0.016310
0.021828
0.030055
0.017183
0.014812
0.014793
0.024648
0.029070
0.027193
0.026736
0.030964
0.033214
0.026740
0.032191
0.030872
0.030340
0.020264
0.026361
0.018231
0.004449
0.007833
0.049480
0.052236
0.052955
0.052726
0.051457
0.056599
0.016045
0.012809
0.016694
0.013976
0.009985
0.014549
0.020486
0.014145
0.018873
0.023321
0.014248
0.022225
0.017545
0.022125
0.026031
0.034507
0.060880
0.052284
0.050309
0.016051
0.016322
0.014849
0.028803
0.019652
0.015856
0.008532
0.013499
0.012213
0.029077
0.031565
0.034065
0.038096
0.044970
0.033337
0.038180
0.053054
0.047861
0.058123
0.052162
0.062401
0.054572
0.055263
0.049209
0.005792
0.007988
0.052157
0.056011
0.051428
0.052448
0.027438
0.028321
0.027369
0.017807
0.046690
0.045807
0.044802
0.038909
0.025177
0.025259
0.022639
0.019335
0.016091
0.019936
0.014894
0.013129
0.010951
0.012161
0.030200
0.028106
0.026610
0.029193
0.028936
0.007929
0.015721
0.012133
0.013626
0.015004
0.014094
0.054681
0.065903
0.045111
0.053862
0.054486
0.038337
0.031681
0.025561
0.022489
0.015665
0.013803
0.012544
0.010194
0.010681
0.014023
0.012162
0.059641
0.053732
0.059656
0.060377
0.050031
0.042779
0.056646
0.043748
0.054085
0.036779
0.028528
0.026037
0.018789
0.020097
0.015818
0.011459
0.010941
0.010850
0.022323
0.021574
0.025157
0.009759
0.027431
0.033178
0.041577
0.028059
0.027401
0.047181
0.014599
0.042049
0.011344
0.018275
0.015873
0.025124
0.013041
0.009383
0.004492
0.009646
0.033532
0.019636
0.030640
0.032302
0.046242
0.030844
0.041323
0.036824
0.058165
0.050098
0.053838
0.062919
0.055030
0.061846
0.062133
0.051992
0.050834
0.055797
0.052382
0.038780
0.054261
0.043496
0.022538
0.039969
0.028801
0.031287
0.027761
0.037466
0.030699
0.044210
0.052713
0.058270
0.010027
0.012203
0.040779
0.016796
0.028898
0.032220
0.024683
0.026371
0.020987
0.025749
0.023927
0.035630
0.025438
0.023590
0.001434
0.044033
0.000628
0.027381
0.028768
0.018057
0.022562
0.099534
0.104050
0.097945
0.017114
0.013819
0.013940
0.011551
0.005214
0.008977
0.018851
0.017093
0.012924
0.016387
0.042503
0.051009
0.041284
0.046026
0.043119
0.038837
0.040644
0.050057
0.025790
0.051777
0.055123
0.056556
0.022890
0.021544
0.018036
0.024033
0.026301
0.014573
0.014148
0.056999
0.054120
0.040567
0.037114
0.051726
0.045039
0.050205
0.005418
0.014501
0.011954
0.044022
0.027880
0.013550
0.011868
0.008580
0.006178
0.007058
0.008775
0.003900
0.007458
0.000784
0.000298
0.001192
0.002873
0.000000
0.002601
0.002258
0.001265
0.004570
0.001393
0.001422
0.003721
0.004044
0.005571
0.005745
0.000000
0.000076
0.006500
0.009668
0.000085
0.006825
0.004082
0.000517
0.037456
0.031447
0.036434
0.030999
0.031404
0.039462
0.043680
0.031302
0.046844
0.017362
0.014730
0.015069
0.016747
0.010419
0.007085
0.012970
0.005637
0.013196
0.010973
0.015868
0.001029
0.005414
0.000064
0.000435
0.004195
0.002392
0.007080
0.007051
0.003213
0.008992
0.001729
0.000861
0.001753
0.000538
0.000000
0.000350
0.000917
0.000410
0.000251
0.000780
0.000366
0.000775
0.000025
0.000124
0.002448
0.003674
0.004043
0.001899
0.001446
0.000587
0.003505
0.008337
0.001885
0.005467
0.001729
0.001649
0.000753
0.000421
0.000406
0.000508
0.001273
0.008050
0.002408
0.002104
0.003363
0.002674
0.001803
0.002154
0.003668
0.005543
0.023262
0.031291
0.038547
0.016020
0.029425
0.008233
0.034959
0.016798
0.046832
0.020022
0.051397
0.079770
0.012119
0.096646
0.025893
0.057335
0.041805
0.069909
0.017202
0.058316
0.013747
0.056230
0.015813
0.049402
0.017598
0.050525
0.017317
0.049920
0.015225
0.045279
0.017269
0.037304
0.033099
0.081637
0.011120
0.065692
0.026780
0.055266
0.062900
0.058542
0.014706
0.062072
0.018892
0.064164
0.031670
0.062361
0.020123
0.051297
0.013801
0.008792
0.010016
0.012630
0.014579
0.015507
0.007475
0.002588
0.001387
0.001795
0.004928
0.006231
0.009374
0.026597
0.011548
0.005380
0.013919
0.006082
0.010657
0.011953
0.004448
0.002013
0.004529
0.000882
0.001250
0.001118
0.000000
0.002133
0.009470
0.001920
0.000316
0.003462
0.002713
0.000012
0.001332
0.008325
0.000951
0.000878
0.000552
0.001177
0.027611
0.004515
0.010674
0.010509
0.000000
0.000718
0.000340
0.002361
0.009268
0.009024
0.011199
0.004146
0.001267
0.000000
0.000459
0.000431
0.001406
0.001032
0.000800
0.000880
0.000799
0.000393
0.000730
0.001098
0.009516
0.001140
0.005881
0.004027
0.002068
0.003088
0.003093
0.004661
0.009665
0.004662
0.005330
0.004503
0.002524
0.001587
0.000450
0.000000
0.001858
0.000824
0.004538
0.005453
0.003644
0.004256
0.001715
0.001055
0.000933
0.002921
0.009446
0.002982
0.078296
0.012484
0.008543
0.000000
0.032586
0.026624
0.019694
0.013977
0.022642
0.018786
0.024593
0.039423
0.038837
0.048510
0.044848
0.053387
0.056140
0.039393
0.063297
0.051459
0.047905
0.030464
0.046514
0.028244
0.034651
0.028327
0.031870
0.029877
0.031835
0.031308
0.029310
0.023114
0.025647
0.028253
0.036791
0.060154
0.036292
0.038657
0.059522
0.024129
0.079337
0.025669
0.038873
0.038929
0.040269
0.042494
0.101416
0.030146
0.050846
0.040936
0.029868
0.041588
0.037818
0.038391
0.048618
0.048322
0.043054
0.034921
0.015433
0.015088
0.013392
0.009266
0.007803
0.001851
0.003988
0.002214
0.016157
0.018051
0.001517
0.002595
0.002886
0.004293
0.008941
0.007238
0.005018
0.003568
0.004372
0.008893
0.016055
0.032120
0.007372
0.001248
0.000963
0.001848
0.000376
0.003461
0.001368
0.001766
0.001754
0.003250
0.005200
0.031058
0.033218
0.101374
0.104738
0.036642
0.027333
0.000277
0.000096
0.009618
0.001313
0.027450
0.000466
0.000400
0.006156
0.017080
0.053154
0.048522
0.013486
0.004719
0.001451
0.006710
0.002765
0.000482
0.000000
0.000000
0.000778
0.002509
0.000977
0.001191
0.002336
0.004818
0.007145
0.005836
0.008888
0.009846
0.015834
0.009305
0.009984
0.005827
0.003942
0.001851
0.000306
0.000230
0.000798
0.000464
0.002103
0.010208
0.009103
0.025862
0.006270
0.003493
0.001128
0.001122
0.015602
0.005984
0.015126
0.014633
0.004750
0.013118
0.013791
0.020241
0.022947
0.026215
0.024953
0.020293
0.012082
0.008016
0.010718
0.005170
0.008141
0.004378
0.004607
0.004159
0.002587
0.004244
0.002145
0.000300
0.052809
0.035676
0.042771
0.049735
0.045335
0.055444
0.049504
0.079086
0.053928
0.055463
0.038775
0.029331
0.047230
0.016840
0.005938
0.036880
0.041201
0.042940
0.017687
0.015345
0.016425
0.017153
0.023026
0.045014
0.045896
0.066421
0.076614
0.039494
0.063244
0.041384
0.062913
0.046492
0.044355
0.031248
0.039196
0.027587
0.034373
0.028993
0.031107
0.029901
0.032920
0.032734
0.032976
0.024401
0.029170
0.021366
0.034223
0.034558
0.036700
0.045499
0.050383
0.041115
0.049570
0.037060
0.026012
0.063583
0.033578
0.034285
0.053316
0.038003
0.000878
0.008131
0.030800
0.029500
0.014637
0.001969
0.002277
0.004867
0.007430
0.010591
0.021492
0.050009
0.067614
0.086234
0.060207
0.029127
0.026865
0.002302
0.002944
0.013043
0.042274
0.051688
0.002997
0.000317
0.000356
0.006239
0.028508
0.028962
0.046883
0.044318
0.062009
0.099737
0.097527
0.011484
0.006465
0.001402
0.000263
0.000000
0.000000
0.000937
0.000683
0.000245
0.000687
0.003436
0.006746
0.007032
0.006617
0.014449
0.019384
0.017956
0.012256
0.010466
0.006190
0.003299
0.001973
0.001170
0.003170
0.019034
0.012554
0.088825
0.013588
0.017598
0.005770
0.001452
0.001195
0.005005
0.007134
0.005963
0.008825
0.007343
0.005403
0.007993
0.009145
0.011532
0.011918
0.034838
0.037887
0.048985
0.039951
0.040944
0.051028
0.050045
0.051698
0.028029
0.043951
0.030835
0.026788
0.039477
0.010443
0.013419
0.034055
0.024281
0.033437
0.010102
0.006693
0.004813
0.008951
0.009114
0.007352
0.004639
0.004110
0.001729
0.001444
0.006030
0.007493
0.010622
0.013899
0.018995
0.019236
0.030276
0.041989
0.076687
0.043874
0.044855
0.046653
0.073527
0.035720
0.044166
0.034618
0.036314
0.028777
0.030583
0.026902
0.029573
0.035736
0.033818
0.035479
0.043932
0.034011
0.032324
0.018319
0.026620
0.026616
0.031513
0.039999
0.026712
0.065950
0.045683
0.042803
0.019335
0.040499
0.041889
0.035543
0.037795
0.038338
0.002921
0.007597
0.027545
0.004249
0.007861
0.005023
0.008690
0.010213
0.012170
0.029976
0.038240
0.051996
0.065270
0.040931
0.033548
0.048221
0.064090
0.017589
0.027607
0.006300
0.055755
0.019786
0.023916
0.006819
0.001047
0.002452
0.011825
0.034795
0.049960
0.050597
0.039615
0.016289
0.009446
0.004056
0.045835
0.070559
0.032742
0.034264
0.018994
0.005580
0.001913
0.007683
0.027462
0.029307
0.038089
0.031099
0.039175
0.037682
0.038495
0.023735
0.006255
0.002645
0.000997
0.000000
0.000000
0.000000
0.000404
0.000487
0.000337
0.001137
0.003338
0.007908
0.004353
0.011855
0.014213
0.016968
0.014136
0.010471
0.009423
0.008833
0.003257
0.001839
0.002042
0.004094
0.011580
0.018699
0.031270
0.029152
0.035716
0.027258
0.020646
0.013242
0.007462
0.003651
0.001744
0.002887
0.005123
0.006936
0.006142
0.007142
0.007523
0.006843
0.007343
0.008547
0.047779
0.036182
0.031137
0.033939
0.029582
0.026431
0.027217
0.020194
0.025413
0.011782
0.016564
0.015005
0.021208
0.018784
0.011680
0.006202
0.005300
0.004577
0.005905
0.009001
0.008988
0.007817
0.005898
0.004650
0.003649
0.003488
0.003325
0.023108
0.013065
0.016655
0.021877
0.035534
0.035255
0.072507
0.040191
0.022197
0.054849
0.040435
0.063144
0.026172
0.032220
0.030915
0.029072
0.022564
0.033586
0.037101
0.037209
0.049027
0.054639
0.047634
0.048550
0.030759
0.024485
0.019037
0.022273
0.030748
0.027257
0.047220
0.047911
0.048821
0.026179
0.026270
0.048492
0.032828
0.045847
0.025992
0.004555
0.005962
0.007938
0.013616
0.001024
0.002965
0.007725
0.003555
0.008174
0.012243
0.012660
0.015740
0.012380
0.008364
0.007462
0.005298
0.003137
0.001973
0.002334
0.004239
0.006118
0.007594
0.011551
0.013215
0.027122
0.028592
0.029051
0.025592
0.013195
0.008073
0.004858
0.030635
0.031709
0.029243
0.025089
0.017729
0.003830
0.000762
0.020147
0.003394
0.030965
0.039199
0.011055
0.006219
0.005531
0.004866
0.018702
0.037302
0.038842
0.030593
0.028709
0.023021
0.014554
0.006694
0.001573
0.001676
0.003185
0.014087
0.032980
0.005684
0.004485
0.005851
0.007820
0.009282
0.010195
0.011061
0.014709
0.033384
0.031755
0.027807
0.036567
0.029568
0.020388
0.020736
0.014048
0.019210
0.012679
0.017712
0.013349
0.010764
0.007873
0.006198
0.003672
0.003500
0.005493
0.009762
0.008366
0.000235
0.000000
0.000000
0.000000
0.000363
0.017548
0.019495
0.030099
0.040431
0.036253
0.048681
0.025805
0.037496
0.046568
0.046675
0.034075
0.034904
0.023882
0.024663
0.025645
0.029997
0.048452
0.046760
0.021085
0.016667
0.054196
0.056803
0.030024
0.021358
0.023565
0.018431
0.029025
0.028648
0.025663
0.058453
0.058602
0.017778
0.024972
0.051373
0.034415
0.033816
0.010430
0.011455
0.018983
0.007865
0.036493
0.035517
0.018600
0.018383
0.017038
0.014707
0.012546
0.010942
0.010829
0.010448
0.009601
0.007427
0.005819
0.004396
0.004092
0.004375
0.009590
0.001517
0.001215
0.004402
0.008600
0.006342
0.004160
0.002507
0.001486
0.001507
0.001949
0.002607
0.003843
0.005142
0.006493
0.008227
0.011581
0.025746
0.032192
0.024935
0.019407
0.012705
0.013110
0.004389
0.009916
0.009591
0.005429
0.009372
0.000292
0.000000
0.000244
0.040576
0.044343
0.025784
0.020641
0.029291
0.015983
0.021120
0.022941
0.009723
0.007699
0.000300
0.000544
0.001951
0.018851
0.032637
0.014142
0.007423
0.009262
0.012591
0.042013
0.042910
0.024965
0.032312
0.021788
0.021448
0.010423
0.003628
0.001212
0.000394
0.000755
0.007108
0.013871
0.026331
0.026547
0.029484
0.049708
0.034887
0.022633
0.032613
0.033377
0.057898
0.028707
0.034517
0.025179
0.025469
0.020589
0.036167
0.039723
0.016159
0.024948
0.025566
0.018073
0.046364
0.031177
0.022560
0.020442
0.019961
0.022024
0.030008
0.025961
0.048232
0.058115
0.020468
0.023531
0.039318
0.033120
0.008858
0.006274
0.007066
0.006470
0.014220
0.007234
0.015577
0.005804
0.004255
0.002503
0.001879
0.001656
0.001519
0.002115
0.002547
0.003527
0.003897
0.005320
0.006717
0.009650
0.010220
0.013108
0.020310
0.022209
0.027631
0.024108
0.016211
0.011743
0.012318
0.013091
0.014232
0.014100
0.006607
0.015531
0.033474
0.031772
0.025419
0.023812
0.015667
0.021309
0.015048
0.007135
0.002761
0.002992
0.012060
0.012221
0.021490
0.027607
0.000968
0.000996
0.007751
0.011290
0.002564
0.031126
0.027198
0.017737
0.014993
0.011114
0.022927
0.035200
0.030832
0.027035
0.023018
0.011849
0.018929
0.025270
0.045523
0.049051
0.026590
0.033637
0.037485
0.069182
0.023494
0.031709
0.021600
0.028084
0.026749
0.023207
0.042564
0.022094
0.021959
0.018391
0.017977
0.054417
0.011199
0.035449
0.020014
0.019925
0.018290
0.029691
0.020447
0.067901
0.039092
0.029184
0.019595
0.036019
0.026950
0.025340
0.022144
0.020186
0.021980
0.024361
0.026063
0.020339
0.013043
0.009418
0.008847
0.008014
0.022995
0.013828
0.004722
0.003706
0.002894
0.002447
0.008656
0.010144
0.001382
0.002265
0.003065
0.003614
0.004201
0.005738
0.006879
0.010051
0.010846
0.014224
0.013251
0.015432
0.019310
0.024309
0.022374
0.025950
0.018746
0.022910
0.026448
0.018425
0.016527
0.001160
0.001998
0.026088
0.033591
0.032922
0.024443
0.034350
0.042394
0.069212
0.021382
0.027455
0.020123
0.029323
0.023348
0.041161
0.022437
0.006893
0.021646
0.016621
0.007219
0.016639
0.030093
0.027119
0.021818
0.018475
0.016828
0.019086
0.025687
0.046863
0.048988
0.034354
0.021825
0.024781
0.024603
0.021148
0.014606
0.013033
0.012114
0.011051
0.010741
0.010803
0.010925
0.013070
0.005619
0.005279
0.005372
0.007490
0.009414
0.017359
0.029857
0.028903
0.011303
0.017746
0.021717
0.018491
0.025849
0.020253
0.028016
0.021363
0.017756
0.020755
0.022263
0.022890
0.023293
0.025581
0.018298
0.014240
0.018491
0.018702
0.020792
0.024640
0.034221
0.027393
0.023450
0.023224
0.015549
0.008918
0.018537
0.014084
0.003894
0.009635
0.011343
0.009190
0.004268
0.044124
0.082567
0.009414
0.023815
0.010823
0.011493
0.014561
0.012057
0.012333
0.015491
0.024418
0.032651
0.020804
0.036469
0.022275
0.026877
0.040332
0.055484
0.022841
0.023407
0.019599
0.023721
0.024490
0.040630
0.029968
0.014992
0.011014
0.010507
0.005803
0.017900
0.045430
0.041876
0.017778
0.021228
0.014572
0.018394
0.032925
0.027113
0.047810
0.024559
0.017999
0.031120
0.025898
0.010710
0.021305
0.030635
0.028624
0.029564
0.029917
0.035032
0.020244
0.017619
0.019269
0.021624
0.026830
0.039846
0.050973
0.040710
0.017560
0.015633
0.017231
0.046030
0.071926
0.014678
0.040341
0.012859
0.015083
0.015911
0.036087
0.031451
0.044438
0.027531
0.023702
0.021474
0.041425
0.024399
0.021720
0.024764
0.006865
0.013178
0.030468
0.028844
0.024434
0.020442
0.015192
0.008804
0.002874
0.032467
0.002590
0.011045
0.029532
0.026385
0.017613
0.017587
0.017387
0.032479
0.018471
0.023732
0.017711
0.026291
0.020453
0.016073
0.015286
0.102079
0.044210
0.002625
0.022651
0.008794
0.024269
0.015008
0.017527
0.035226
0.026980
0.034900
0.054004
0.033612
0.025535
0.020685
0.022814
0.069555
0.030630
0.036441
0.012817
0.012548
0.012991
0.015298
0.020532
0.017957
0.017165
0.048243
0.012079
0.029180
0.012282
0.017028
0.015972
0.030353
0.018054
0.014380
0.019481
0.018450
0.024051
0.023686
0.015657
0.021003
0.013171
0.041229
0.017203
0.025219
0.014697
0.013959
0.022048
0.020839
0.019258
0.023956
0.040623
0.027814
0.029413
0.032350
0.000000
0.000172
0.000435
0.000315
0.053926
0.026479
0.023717
0.043323
0.037845
0.011217
0.009222
0.011153
0.001964
0.004490
0.029180
0.018074
0.026591
0.016977
0.001139
0.008179
0.022441
0.031515
0.020193
0.029073
0.026748
0.001048
0.000738
0.009493
0.011964
SCALARS S11_SP5(MPa) float 1
LOOKUP_TABLE default
0.044844
0.060708
0.004257
0.006428
0.011304
-0.000867
-0.002349
-0.004033
-0.003000
-0.002894
-0.002741
-0.000969
-0.000207
0.000160
0.000024
0.000388
0.003306
0.001582
-0.000878
-0.000551
-0.001322
0.000253
0.000760
0.000016
-0.000352
-0.000728
0.003223
0.002214
0.001114
0.001460
-0.000747
0.003626
0.000487
0.002029
0.001012
0.002408
0.003097
0.000009
-0.000242
-0.002204
-0.003354
-0.000744
0.000102
-0.000181
-0.000195
0.000664
0.000472
0.003128
0.004924
0.002150
0.000204
0.000649
0.001095
0.003322
0.002401
0.001436
0.001195
0.002442
0.000986
0.000923
0.010025
0.001653
0.000637
0.011961
0.003944
0.008648
0.002022
0.005168
-0.000288
-0.000860
0.000657
0.000033
-0.000792
0.001334
-0.000777
0.000365
-0.000083
-0.000948
-0.000302
0.000913
0.001642
-0.000339
-0.000201
0.000372
0.002957
0.018840
0.009033
-0.001290
-0.000044
-0.000533
-0.000968
-0.000647
-0.000332
0.002241
0.001333
0.000287
-0.001102
-0.000048
-0.000829
0.000178
-0.000686
0.001137
0.000559
0.001993
0.005499
0.004939
0.014790
0.009954
0.010684
0.011710
0.010104
0.009142
0.010773
0.003112
0.003676
0.007344
0.014171
0.016929
0.036647
0.003582
0.000288
0.001301
0.000146
0.002589
0.001241
-0.000055
-0.000159
0.000194
0.002990
-0.000781
-0.004413
-0.001412
0.000479
0.000603
-0.001188
-0.001857
-0.000662
-0.000635
-0.001076
-0.000874
-0.001766
-0.001008
-0.000570
0.000297
-0.000245
-0.000269
0.000108
0.000060
0.002981
0.000449
0.000758
0.000030
-0.000144
-0.001110
-0.002353
0.006182
0.028674
0.016022
0.006848
-0.002230
0.004167
-0.000202
-0.006280
-0.003239
-0.003699
-0.004099
-0.004318
-0.004793
-0.000286
0.000646
0.000210
0.002028
0.002996
0.000147
-0.000355
-0.000709
-0.000257
-0.000188
-0.000249
-0.000353
0.000114
-0.000059
-0.000250
-0.000151
0.000415
0.002990
0.000235
-0.000124
0.000303
0.000821
0.001310
0.001803
-0.002027
-0.002509
-0.008885
-0.004630
-0.002777
-0.000872
0.000301
0.000380
0.000798
0.005395
0.003305
0.009068
0.006583
0.002081
0.001583
0.000599
-0.000207
-0.000976
0.000968
0.000030
-0.006764
-0.001768
0.002496
-0.002312
0.000312
0.006529
0.008924
0.002212
-0.001297
-0.001798
0.000009
0.000583
0.000456
-0.000064
-0.000128
0.007848
0.000788
0.000026
0.000142
-0.000350
0.000008
0.000195
-0.000075
0.000400
0.003112
0.024358
0.003753
0.003501
0.000613
-0.001176
-0.000783
-0.000260
-0.000694
-0.000798
-0.001991
-0.000059
0.004062
0.000043
-0.001201
-0.002831
-0.004295
-0.002229
0.001371
-0.000523
-0.001085
0.037329
0.031536
0.018006
0.011788
0.006267
0.004674
0.002756
0.002896
0.003935
0.008193
0.009292
0.016275
0.014890
0.022554
0.060327
0.011914
0.000773
0.000388
0.002622
0.002094
0.002235
-0.000201
-0.001118
-0.002200
-0.002950
-0.002821
-0.000442
0.001095
0.006506
0.026580
0.001914
-0.000576
-0.000933
-0.001478
-0.001719
-0.002139
-0.002409
-0.000755
0.000121
-0.000252
-0.000467
0.000147
0.000170
0.000846
0.003098
0.000950
0.000509
0.000463
0.001286
-0.002890
0.000924
0.006297
0.009962
0.006516
-0.000011
0.002876
-0.000882
-0.001924
-0.003496
-0.003109
-0.003535
-0.005583
-0.004812
-0.000891
-0.000167
0.000055
0.002348
0.002356
0.000206
-0.000528
-0.000594
-0.001266
-0.000240
-0.000486
-0.000907
-0.000025
-0.000263
0.000202
-0.000030
-0.000747
-0.000539
0.001224
0.000263
0.000259
0.001299
0.001617
0.001987
0.000223
-0.012233
-0.003941
-0.002458
-0.000216
0.000965
0.000926
0.007446
0.010606
0.004517
0.004400
0.001875
0.023296
0.001653
0.001047
-0.000764
0.000593
0.000176
0.000357
0.011982
-0.001526
-0.004996
-0.001786
-0.000940
-0.000892
0.000825
0.003528
0.003048
0.007411
0.003610
0.001186
0.011250
0.005150
-0.001556
0.003308
-0.000210
-0.000457
0.000867
0.001202
0.005550
-0.008348
0.015239
0.008068
0.003236
-0.000687
-0.001443
-0.001224
-0.001298
-0.001650
-0.000748
0.000004
-0.001417
0.003820
-0.000038
0.002759
-0.000123
0.000355
0.000354
0.009203
0.010892
0.008203
0.007662
0.005280
0.002860
0.002331
0.002194
0.002889
0.006811
0.010221
0.010497
0.014394
0.035176
0.015006
0.062973
0.048499
0.045611
0.013912
0.006728
-0.000072
-0.000176
-0.002863
-0.002069
-0.001464
-0.000146
0.000393
0.002078
0.005743
0.014691
0.092690
0.079654
0.065409
0.033071
-0.000607
-0.001015
-0.000902
-0.000506
0.000128
-0.000710
-0.000776
0.000243
0.000556
0.001470
0.014510
0.069110
0.026570
0.037810
0.024589
-0.000042
0.000898
0.003891
0.002863
0.018069
0.007355
0.002719
0.001308
0.000266
-0.000233
-0.000418
-0.001173
-0.001744
-0.000828
-0.000683
-0.000281
-0.000243
-0.000114
-0.000932
-0.000945
-0.000264
-0.000841
-0.003293
-0.001955
-0.002516
0.000716
-0.000437
-0.000874
0.001543
0.036852
0.037346
-0.003415
-0.005993
-0.000186
-0.002715
0.003770
0.012866
0.002413
0.000532
-0.001456
-0.004499
-0.005684
-0.005403
-0.005404
-0.004605
-0.003120
-0.002235
-0.001315
-0.000459
-0.000020
0.000368
0.000758
0.000528
0.002776
0.000897
0.002596
0.001880
0.003822
0.001099
0.004270
0.006536
0.000983
0.007169
0.002879
0.008066
0.010909
0.003423
0.007795
0.009102
0.003507
0.005924
0.006411
0.002702
0.008623
0.001454
0.007350
0.006938
0.003896
0.009114
0.004762
0.004961
0.001698
0.005929
0.004594
0.003304
0.005485
0.003747
0.003037
0.008077
0.006872
0.005548
0.014775
0.009554
0.014826
0.012207
0.010439
0.015477
0.014736
0.019468
0.016281
0.026205
0.021822
0.024285
0.024845
0.025987
0.020333
0.024414
0.022549
0.022434
0.029080
0.027263
0.018971
0.026161
0.024513
0.015063
0.022845
0.015705
0.016366
0.015776
0.008711
0.006908
0.007162
0.004054
0.007705
0.003960
0.002499
0.008082
0.004600
0.006979
0.007386
0.003821
0.006726
0.008425
0.008292
0.018780
0.016008
0.008716
0.020304
0.017444
0.017158
0.020482
0.026110
0.015118
0.019766
0.020427
0.012145
0.017494
0.016817
0.010347
0.013891
0.014639
0.013074
0.009886
0.015528
0.013811
0.010567
0.012575
0.010894
0.007157
0.010644
0.007012
0.005639
0.007964
0.006702
0.002366
0.001913
0.000791
0.000658
0.001636
0.006250
0.000463
0.001244
-0.002673
0.000482
-0.000351
0.000358
0.000076
0.000230
0.000217
0.000538
0.000790
0.004419
0.000523
0.002157
0.000747
-0.000132
-0.000553
-0.000284
0.000215
0.001469
0.013137
0.009404
0.012060
0.023494
0.011657
0.014328
0.013881
0.004590
0.001601
0.000193
-0.000484
-0.001015
-0.002722
-0.004872
-0.003421
-0.003188
-0.001052
-0.002879
-0.001129
0.002914
0.003921
-0.000537
-0.000692
-0.002568
-0.004447
-0.005404
-0.005524
-0.005725
-0.004835
-0.004188
-0.002616
-0.001563
-0.001085
-0.000645
-0.000396
0.000123
0.001170
-0.002257
-0.002043
-0.003400
-0.004005
-0.004101
-0.001880
-0.000015
0.006836
-0.000360
0.009285
-0.004711
-0.000595
-0.002010
0.007782
-0.001127
0.002051
0.031643
-0.000087
0.000351
0.000206
0.001528
0.000740
0.001774
0.000832
0.001636
0.001859
0.001436
0.003589
0.002535
0.004883
0.005204
0.003366
0.004208
0.003603
0.002271
0.004213
0.003546
0.002043
0.002735
0.002233
0.002319
0.003770
0.002548
0.004564
0.005053
0.002487
0.001837
0.002331
0.001846
0.001906
0.003316
0.002050
0.003983
0.001882
0.002236
0.007001
0.008069
0.008424
0.009703
0.011119
0.010314
0.010183
0.016911
0.015138
0.023824
0.012636
0.015651
0.015312
0.015822
0.017289
0.021868
0.019188
0.018654
0.027845
0.018060
0.017216
0.021978
0.015940
0.013116
0.013850
0.010933
0.008518
0.006110
0.007322
0.003888
0.005419
0.003906
0.004172
0.002105
0.001571
0.002947
0.003228
0.001763
0.003509
0.004480
0.004517
0.005064
0.004462
0.003164
0.002383
0.007464
0.006540
0.007495
0.007650
0.007214
0.011616
0.010004
0.010403
0.010686
0.014518
0.012045
0.011538
0.014448
0.008999
0.009366
0.013303
0.008361
0.014360
0.011473
0.007904
0.009877
0.011302
0.007359
0.009994
0.007273
0.003793
0.005419
0.005497
0.002425
0.003068
0.001587
0.000222
-0.000222
-0.001103
0.000156
-0.000137
0.008677
-0.000744
0.005704
-0.000138
-0.000162
-0.000516
-0.000382
-0.000284
0.000189
0.000074
-0.000122
0.000033
-0.000031
0.000175
0.000400
0.010680
0.018430
0.009969
0.007996
0.014772
0.018053
-0.002914
-0.004212
-0.003546
-0.002971
-0.001451
-0.000492
-0.000197
0.001485
0.005041
0.003253
0.002808
0.014249
0.004369
0.002793
0.002948
0.004214
0.007266
0.007998
0.001908
0.002286
0.001125
0.000162
-0.000155
-0.009529
-0.015338
-0.006383
-0.002820
-0.000366
0.000488
0.000028
0.000500
0.000330
0.000695
0.000879
0.000820
0.002013
0.001914
0.002532
0.002935
0.002731
0.002496
0.002212
0.002257
0.002580
0.002968
0.000910
0.001404
0.001310
0.002191
0.002388
0.001677
0.002128
0.004343
0.002354
0.001247
0.001266
0.001353
0.001564
0.001214
0.000968
0.000476
0.002146
0.004040
0.003494
0.004059
0.007644
0.004373
0.008843
0.009171
0.014164
0.013044
0.013995
0.010634
0.015576
0.012901
0.016288
0.017215
0.020685
0.019504
0.014682
0.019336
0.017223
0.014278
0.018595
0.011941
0.014905
0.011728
0.010226
0.009821
0.007545
0.005283
0.005451
0.005274
0.002247
0.002925
0.001644
0.001713
0.001010
0.001004
0.000745
0.001364
0.003443
0.002064
0.002595
0.004644
0.004264
0.004176
0.006066
0.004554
0.007196
0.005272
0.007607
0.005979
0.006383
0.006865
0.010320
0.009360
0.008643
0.012455
0.010449
0.009979
0.011675
0.007612
0.008173
0.009438
0.012137
0.007011
0.010371
0.010789
0.007803
0.008732
0.004859
0.003603
0.004669
0.002471
0.002689
0.003676
0.000545
-0.000221
-0.000283
-0.001123
-0.004257
-0.007389
-0.005094
-0.005224
0.005224
-0.003691
0.001812
0.000999
0.000810
0.000258
0.000139
0.000407
0.001810
0.002669
0.000152
0.001211
0.001619
0.017309
0.012986
0.010424
0.024483
0.038578
-0.002896
-0.004474
-0.005494
-0.006032
-0.005620
-0.005557
-0.005247
-0.004330
-0.003096
-0.001873
-0.001061
-0.000659
-0.000504
0.000080
0.000080
-0.000418
-0.002330
0.068334
0.022769
0.002298
0.014050
0.008596
0.046603
0.022434
0.056383
0.017584
0.000527
-0.000688
0.003738
0.000674
-0.000793
-0.001347
-0.002191
-0.002268
0.013498
0.001293
0.000610
0.000025
0.002533
0.001485
0.000136
-0.000650
-0.001057
-0.001286
0.005604
0.001371
-0.000067
-0.000021
-0.000381
-0.000390
-0.000904
0.000478
-0.000077
0.001459
0.000132
0.001132
0.005199
0.002656
0.000314
-0.004779
-0.002243
-0.000098
-0.008389
-0.016694
-0.000460
0.000435
0.001199
0.000903
0.004880
0.000396
0.024274
0.009878
0.006314
0.006591
0.000508
0.010955
0.000817
0.000932
0.001769
0.007327
0.009207
-0.006333
-0.001000
-0.016949
-0.006428
-0.007749
0.001885
0.002388
0.016389
0.011602
0.004801
0.007070
0.013882
0.075887
0.070108
0.005111
0.016508
0.014316
0.000603
0.000123
0.000453
0.002336
0.014599
0.084409
0.025354
0.025446
0.019501
-0.000695
0.062660
0.043832
0.030398
0.012293
0.001712
0.001069
0.000356
0.000061
-0.000252
-0.002148
-0.004144
0.003103
-0.001571
-0.006248
0.003959
0.001002
0.000417
-0.000318
-0.000669
0.000349
0.000382
0.001037
-0.000140
0.000067
0.001804
0.005163
0.005796
0.005380
0.006163
0.004276
0.002302
0.001717
0.001799
0.002818
0.005579
0.006021
0.008605
0.012733
0.013058
0.023680
0.041163
0.023459
0.028524
0.014271
0.004888
0.001694
-0.002722
-0.001542
-0.001751
-0.000377
0.000461
0.000563
0.001732
0.005977
0.023794
0.063588
0.071605
0.066489
0.035758
0.011834
0.001515
-0.000188
0.000021
0.000170
-0.002184
-0.000675
-0.000467
0.000312
0.001653
0.005667
0.049576
0.032602
0.025784
0.029802
0.004250
0.003206
0.002988
0.000681
0.000639
0.001482
-0.000364
0.001803
0.052512
0.003297
0.006442
0.007537
0.011768
0.016880
0.033068
0.032631
0.001271
-0.000374
0.016167
-0.000449
-0.002360
-0.002671
-0.002151
-0.002293
0.001868
0.006185
0.028448
0.035688
0.021468
0.010751
0.001285
0.000215
-0.000401
-0.001047
0.000138
0.001718
-0.000021
-0.001123
-0.000454
-0.001588
-0.000424
-0.001055
-0.001248
0.000950
0.030221
0.005715
0.001768
-0.001390
-0.001179
0.021081
0.030771
0.105727
0.050794
0.037702
0.006714
0.003247
0.012719
0.029061
0.076899
0.024946
0.013802
0.018705
0.007887
0.001909
0.005946
0.002388
0.006276
0.011117
0.020555
-0.005607
-0.001080
-0.011142
-0.000461
0.000678
0.003406
0.012072
0.009052
0.005081
0.029480
0.044573
0.060321
0.052760
0.023408
0.010163
0.019181
0.005598
0.002992
0.000498
0.000777
0.003238
0.027575
0.046802
0.058189
0.041117
0.011012
0.019302
0.009762
0.006786
0.089047
0.078456
0.032707
0.020581
0.004452
0.002560
0.002079
0.001295
0.000754
0.000601
-0.000177
-0.001421
-0.001961
0.005981
0.013275
0.021037
0.034482
0.045699
0.034145
0.003415
0.002548
0.000259
-0.001084
0.000156
0.025785
0.004099
0.003017
0.002190
0.004466
0.002692
0.001372
0.001723
0.001868
0.001806
0.003107
0.001635
0.000039
-0.000454
-0.004039
-0.007005
-0.007143
-0.005867
-0.005448
-0.003201
-0.002204
-0.001553
-0.000650
0.000125
0.000722
0.000989
0.001389
0.001444
0.003245
-0.001511
-0.000735
0.000065
0.000395
0.000466
0.000754
0.000812
0.001271
0.001839
0.001705
0.002740
0.002343
0.002315
0.002595
0.001871
0.002390
0.002046
0.002243
0.001952
0.000961
0.001191
0.001088
0.001171
0.002159
0.002725
0.000993
0.001013
0.000955
0.000819
0.000795
0.000780
0.000317
0.000475
0.000662
0.001513
0.003062
0.002859
0.004246
0.006662
0.006375
0.007615
0.012480
0.010685
0.012217
0.011586
0.012712
0.013969
0.016798
0.012873
0.012018
0.017174
0.015816
0.014261
0.014080
0.019758
0.012770
0.011580
0.010587
0.012186
0.007194
0.004426
0.003651
0.003986
0.003559
0.002972
0.002522
0.002444
0.001322
0.001127
0.000719
0.000908
0.000736
0.000989
0.000551
0.002310
0.002018
0.002417
0.002748
0.003562
0.003745
0.004500
0.004281
0.005326
0.006558
0.004955
0.006394
0.008155
0.008226
0.006062
0.006612
0.004039
0.006593
0.007191
0.007691
0.008076
0.005759
0.005731
0.004113
0.004074
0.007178
0.008177
0.006812
0.008368
0.005258
0.004032
0.005344
0.004428
0.001777
0.001641
0.000396
-0.000344
-0.001284
-0.002281
-0.002528
-0.007223
-0.000848
0.002622
0.007402
0.002420
-0.000051
-0.000118
-0.003729
-0.003545
-0.003839
-0.005219
-0.004772
-0.004604
-0.004304
-0.002943
-0.001589
-0.001118
-0.000873
0.000332
0.001485
0.004683
0.006384
0.004474
0.005330
0.002508
0.001593
0.001376
0.001592
0.001904
0.003655
0.005207
0.006956
0.013198
0.016463
0.019518
0.019622
0.013073
0.009651
0.005189
-0.001408
-0.000479
0.000217
0.000922
0.001220
0.003801
0.004569
0.032380
0.060777
0.062783
0.044702
0.037995
0.025322
0.007501
0.002534
0.001617
0.023210
0.036160
0.011881
0.004290
0.003993
0.010345
0.000295
-0.001286
0.000547
0.001993
0.001058
0.001374
0.000382
-0.000471
-0.001621
-0.005021
-0.004665
-0.008258
-0.003721
-0.002700
-0.002400
-0.001375
-0.000432
-0.000074
0.000168
0.000448
0.000320
0.000014
0.000242
-0.001356
0.001553
0.004335
0.002448
0.003763
0.012819
0.011060
0.014848
0.001052
0.001061
0.002576
0.004259
0.002710
0.001524
0.001234
0.001171
0.001191
0.001733
0.002482
0.003920
0.008572
0.011347
0.012635
0.015974
0.012586
0.007245
0.003319
0.000229
0.000159
0.001076
0.000986
0.001866
0.002537
0.040204
0.045763
0.053335
0.045532
0.031948
0.029786
0.013306
0.005310
0.004130
0.004452
0.009301
0.003559
0.003955
0.015429
0.004186
0.020948
0.030070
0.028570
0.033176
0.023819
0.028445
0.024523
0.018251
0.006366
0.003660
0.006658
0.004827
0.003586
0.007967
0.000116
0.029795
0.023153
0.022382
0.011706
-0.003095
-0.003485
-0.003801
-0.003757
-0.003697
-0.003337
-0.002090
-0.001397
-0.000932
-0.000147
0.000071
0.000570
0.000529
0.000885
0.001146
0.002744
0.002802
0.002738
0.004954
0.002057
0.004130
0.003347
0.002767
0.004421
0.001984
0.001077
0.001556
0.000487
0.000718
0.000857
0.000994
0.001002
0.001082
0.000874
0.000602
0.000661
0.000709
0.000330
-0.000008
0.000308
0.000992
0.002758
0.003109
0.004851
0.007177
0.007406
0.008047
0.014839
0.009028
0.009910
0.009739
0.014449
0.012704
0.015970
0.011169
0.016743
0.014692
0.013349
0.012541
0.013026
0.012205
0.008844
0.011399
0.012219
0.009034
0.007246
0.005933
0.003639
0.003530
0.002895
0.002455
0.002827
0.001305
0.000500
0.000257
0.000550
0.000312
0.000436
0.000565
0.000363
0.001003
0.001857
0.001524
0.002054
0.002554
0.001860
0.003537
0.003615
0.004828
0.004517
0.004886
0.005097
0.004337
0.004961
0.005454
0.005008
0.007012
0.007394
0.006238
0.006459
0.006189
0.005471
0.006101
0.005890
0.008299
0.006706
0.005778
0.007953
0.006267
0.009316
0.005750
0.003617
0.003523
0.003413
0.001814
0.000667
-0.000190
-0.000676
-0.002007
-0.002711
-0.002829
-0.001554
0.001734
0.004013
0.023723
0.035939
0.002655
0.001406
-0.004383
-0.000414
0.032340
0.013755
0.005271
0.002347
0.000645
0.001955
0.011853
0.022884
0.026183
0.067341
0.048349
0.026844
0.017418
0.004278
0.008124
0.009222
0.011565
0.017008
0.005223
0.002688
0.002817
0.006716
0.006983
0.015635
0.011464
0.000514
-0.000119
0.001171
0.000748
0.000780
0.010707
0.005286
0.007275
0.009134
0.033974
0.034443
0.011945
0.004041
0.004583
0.007779
0.001369
0.001052
0.000842
0.001589
0.000026
0.005185
0.003474
0.007897
0.027696
0.041975
0.035430
0.020941
0.012854
0.009741
0.004830
0.001342
0.000758
0.002265
0.005529
0.021808
0.044463
0.029651
0.032892
0.027730
0.007031
0.020283
0.007125
0.006309
0.022633
0.072078
0.053009
0.026442
0.015345
0.007509
0.005172
0.002955
0.002109
0.001480
0.000681
0.000504
0.000086
-0.000390
-0.000191
0.004371
0.011638
0.011024
0.015851
0.022234
0.001232
0.001308
-0.000116
-0.009939
-0.006230
-0.005730
-0.004331
-0.002882
-0.001244
0.041827
0.000928
0.002710
0.002489
0.001630
0.001414
0.001840
0.003615
0.004413
0.006382
0.023259
0.035195
0.032949
0.052342
0.043990
0.038810
0.026577
0.017274
0.009115
0.006695
0.005781
0.012951
0.019101
0.019132
0.015456
0.007265
0.008077
0.017267
0.034031
0.026021
0.023198
0.023974
0.021259
0.014611
0.007883
0.004870
0.005070
0.001032
0.011826
0.006988
0.012678
0.002259
-0.000949
0.009906
0.029042
0.030987
0.022112
0.013189
0.002350
0.000236
-0.000585
0.002264
0.014290
0.003631
0.003583
0.005277
0.036836
0.010312
0.004766
0.013468
0.014901
0.025653
0.018418
0.030774
0.010864
0.005548
0.002393
0.002640
-0.001709
-0.002495
-0.003593
-0.002582
0.000155
0.008218
0.018661
0.022772
0.017291
0.009289
0.002003
0.000656
0.000213
0.000338
0.000095
-0.000398
-0.001005
-0.003093
-0.001391
-0.001561
-0.003469
-0.000071
0.000091
0.000175
0.000090
-0.000243
-0.000848
-0.000368
-0.000924
-0.001486
-0.002243
-0.002661
-0.002667
-0.002528
-0.001756
-0.001075
-0.000476
0.000376
0.000378
0.001041
0.001491
0.002744
0.002454
0.005422
0.006665
0.007669
0.002349
0.002969
0.004300
0.010792
0.005320
0.002519
0.001512
0.000592
0.000307
0.000568
0.000494
0.000817
0.001184
0.001283
0.000591
-0.000242
0.001521
0.000532
-0.000681
-0.000581
-0.000468
0.000490
0.002279
0.003842
0.005117
0.007647
0.007535
0.007551
0.012729
0.009871
0.009832
0.010095
0.014102
0.012896
0.010398
0.011677
0.014133
0.012031
0.011338
0.012014
0.013935
0.010925
0.011728
0.010685
0.008651
0.007252
0.005661
0.003664
0.002049
0.001924
0.002323
0.001866
0.000646
0.000148
0.000285
0.000511
0.000078
-0.000433
-0.000615
-0.000589
-0.000145
0.000213
0.000991
0.000711
0.001299
0.001720
0.001915
0.002196
0.002468
0.003603
0.003798
0.002618
0.002493
0.002820
0.005723
0.005539
0.003228
0.002812
0.005357
0.005413
0.004094
0.004524
0.006040
0.004891
0.005682
0.005787
0.005295
0.003921
0.005012
0.004573
0.004519
0.006137
0.002958
0.002713
0.001774
0.001662
0.000214
-0.000383
-0.001383
-0.003185
-0.002304
-0.000100
0.001216
0.004983
0.009646
0.012629
0.002601
0.001201
0.006409
0.014367
0.016671
0.023370
0.024186
0.030019
0.007972
0.006879
0.005898
0.012622
0.009891
0.018740
0.009099
0.010407
0.003156
0.008372
0.005303
0.001892
0.001464
0.001662
0.002063
0.002826
0.004561
0.006028
0.004299
0.011186
0.025729
0.030205
0.049873
0.065936
0.040383
0.032638
0.022259
0.014398
0.010208
0.009179
0.013840
0.011032
0.023824
0.014683
0.019537
0.012852
0.008724
0.009692
0.037397
0.023375
0.020017
0.017594
0.015933
0.011687
0.010842
0.006074
0.004084
0.004998
0.047986
0.012300
0.005855
0.011425
0.002001
-0.001595
-0.001574
0.000910
0.001958
0.006569
0.011530
0.019702
0.013790
0.005376
0.001453
0.000650
0.000110
-0.000735
-0.001492
-0.001578
-0.001330
-0.003837
-0.003226
-0.005240
-0.005080
0.001475
-0.000451
-0.003293
-0.002208
-0.002129
-0.001619
-0.000624
-0.001045
-0.000212
-0.000610
-0.000119
0.000009
-0.000024
-0.000028
-0.000245
-0.000665
-0.001465
-0.001498
-0.000727
0.001866
0.002707
0.005209
0.016550
0.031792
0.029302
0.016691
0.019799
0.026965
0.008604
0.016040
0.007015
0.008391
0.013085
0.026742
0.041365
0.024655
0.021428
0.020944
0.011676
0.007965
0.004231
0.002346
0.002474
0.001568
0.000991
0.001407
0.001407
-0.000144
-0.001520
-0.002543
-0.002624
-0.002050
-0.001277
-0.000586
0.000307
0.000261
0.001489
0.002115
0.007150
0.006566
0.016504
0.004392
0.006922
0.007010
0.002961
0.017253
0.008897
0.003079
0.001664
0.000631
0.000335
0.000119
0.000162
0.000883
0.001025
0.000747
0.000767
0.002340
0.001226
-0.006487
-0.004485
-0.003739
-0.002961
0.000326
0.001418
0.003406
0.004263
0.005655
0.007245
0.011012
0.008681
0.006693
0.007908
0.014439
0.012023
0.009899
0.010253
0.012230
0.018301
0.010413
0.012568
0.010008
0.013815
0.010136
0.007352
0.008494
0.006454
0.005864
0.002457
0.002146
0.001778
0.001256
0.000834
0.000133
-0.000778
-0.001316
-0.001296
-0.000014
-0.000352
-0.002137
-0.002176
-0.002027
-0.001541
-0.001066
-0.000800
-0.000656
0.000089
-0.001278
0.000240
0.000170
0.000470
0.002149
0.001505
0.001272
0.000957
0.001825
0.002798
0.002417
0.002578
0.001362
0.000867
0.003289
0.003904
0.002941
0.004213
0.003201
0.005237
0.006638
0.003439
0.005392
0.005281
0.004246
0.004561
0.005338
0.004378
0.004514
0.004919
0.004048
0.004835
0.002654
0.002052
0.001382
0.000433
-0.000320
-0.001457
-0.002350
-0.002355
-0.000211
0.001060
0.002270
0.025156
0.010780
0.006406
0.007201
0.005376
0.002693
0.003170
0.003126
0.003723
0.007248
0.006473
0.007592
0.011681
0.019304
0.033705
0.028641
0.044839
0.035557
0.027020
0.017404
0.011891
0.012063
0.015140
0.015654
0.015248
0.015863
0.015782
0.020064
0.013950
0.012744
0.007870
0.009399
0.024598
0.025300
0.021421
0.017566
0.014211
0.012175
0.010038
0.008742
0.007642
0.006241
0.002315
0.009097
0.012282
0.013506
0.002261
0.003509
0.003340
0.009371
0.002242
0.002292
0.009024
0.016978
0.006538
-0.000766
0.000341
0.000911
0.002386
0.004261
0.005524
0.006007
0.008265
0.008610
0.024991
0.025348
0.003149
0.004470
0.002168
0.003303
0.004681
0.002197
0.001173
0.001027
0.000978
0.001388
0.002093
0.003406
0.005665
0.006418
0.014799
0.008651
0.012693
0.005261
0.006975
0.006557
0.001732
0.002816
0.002252
0.001514
0.001807
0.031182
0.024409
0.019701
0.011761
0.008491
0.007739
0.004447
0.007241
0.013330
0.019875
0.017778
0.011061
0.004820
0.002364
0.001494
0.004959
0.012517
0.025421
0.014133
0.026366
0.036040
0.017525
0.005547
0.012214
0.006357
0.006500
0.006870
0.005873
0.009193
0.009939
0.018895
0.022060
-0.001452
-0.001417
-0.000193
-0.000125
-0.000003
-0.000055
-0.000212
-0.000463
-0.001042
-0.001535
-0.001997
0.002049
0.003627
0.011849
0.021555
0.024820
0.015655
0.017228
0.011376
0.015626
0.045684
0.020487
0.012764
0.009916
0.007332
0.015130
0.030060
0.023216
0.015641
0.022921
0.014289
0.007134
0.003385
0.002542
0.002348
0.002972
0.001478
0.001595
0.001489
0.001138
0.000115
0.002099
-0.002012
-0.001744
-0.000601
0.000312
0.001022
0.029139
0.006612
0.002314
0.005406
0.004256
0.034450
0.005920
0.003014
0.001543
0.000735
0.000336
0.000189
0.000211
0.000706
0.001097
0.001248
0.003326
0.006126
-0.003669
-0.005179
-0.011493
-0.007149
-0.000448
-0.000465
0.001424
0.003561
0.004689
0.009238
0.007350
0.009859
0.006707
0.006348
0.009927
0.014379
0.011842
0.009531
0.012609
0.012939
0.014753
0.012007
0.011312
0.010736
0.012877
0.007941
0.006460
0.006557
0.005409
0.002550
0.002629
0.001510
0.001008
0.000301
-0.000718
-0.002311
-0.003389
-0.005551
-0.010540
-0.002928
-0.001956
-0.008360
-0.005656
-0.004714
-0.003715
-0.003062
-0.001995
-0.001653
-0.000672
0.004286
-0.001730
-0.001606
-0.000615
0.000114
0.001431
0.003931
0.020988
0.001780
0.007591
0.002501
0.007766
0.003162
0.004600
0.002207
0.000927
0.000192
-0.000033
-0.000069
0.000653
0.000288
0.001208
0.003518
0.001821
0.001344
-0.001206
-0.002656
-0.009573
-0.004505
-0.001071
0.000663
0.002535
0.003267
0.007534
0.007114
0.006211
0.007837
0.006268
0.008312
0.011132
0.012547
0.010165
0.009079
0.010523
0.015849
0.009753
0.010626
0.008757
0.011270
0.012057
0.007414
0.004655
0.004186
0.003520
0.002161
0.001501
0.000998
0.000143
-0.001861
-0.003177
-0.003688
-0.005601
-0.007909
-0.002371
-0.000726
-0.001958
-0.005093
-0.004665
-0.004451
-0.003887
-0.003179
-0.001730
-0.001148
-0.000486
0.000738
0.000709
-0.002079
0.001932
0.003949
0.015000
0.018270
0.012400
0.007812
0.005369
0.003625
0.003711
0.007081
0.014923
0.014861
0.011385
0.011477
0.017336
0.024051
0.015579
0.017590
0.008533
0.005006
0.006208
0.015787
0.009466
0.007420
0.009314
0.003238
0.002467
0.002716
0.004064
0.002757
0.002487
0.002128
0.004995
-0.000961
0.001619
0.000293
0.000503
0.004181
0.004111
0.001803
0.003658
0.003051
0.006108
0.005055
0.004416
0.002718
0.000753
0.002758
0.002112
0.000921
0.001187
0.000604
0.000092
-0.000366
0.003921
0.002384
0.009635
-0.002356
-0.001202
-0.000988
-0.000332
-0.001244
0.000398
0.002921
0.002946
0.005188
0.009560
0.014583
0.011009
0.003075
0.000920
0.000307
-0.000024
-0.000487
-0.000982
-0.002046
-0.003583
-0.003442
-0.002536
-0.001502
-0.000240
0.009196
0.018073
0.004140
0.006305
0.001028
0.000436
0.000873
0.000578
-0.000071
-0.000265
-0.000752
-0.000471
0.001051
0.000943
0.003826
0.011411
0.023194
-0.000494
-0.002103
-0.001559
-0.006178
-0.003010
-0.001329
0.001316
0.002840
0.004258
0.009286
0.005954
0.008193
0.010993
0.006531
0.010494
0.012658
0.010387
0.010207
0.008608
0.012771
0.019462
0.012481
0.010712
0.009942
0.009753
0.011045
0.006188
0.005268
0.004190
0.003846
0.002641
0.001155
0.000437
-0.000565
-0.001945
-0.004186
-0.004661
-0.006604
-0.002623
-0.000795
0.001338
-0.003191
-0.008256
-0.008458
-0.007212
-0.005541
-0.003710
-0.002602
-0.001685
-0.000880
-0.000407
0.000452
0.001151
0.000818
0.000676
0.000392
0.000320
0.001535
0.002066
0.002001
0.001215
0.002419
0.001077
0.001603
0.002816
0.002023
0.002743
0.004075
0.003731
0.003753
0.003318
0.004564
0.004019
0.004535
0.003458
0.004539
0.003150
0.004839
0.004655
0.003523
0.003961
0.002232
0.001398
0.000950
-0.000139
-0.001293
-0.001756
-0.002153
-0.000050
0.001112
-0.001216
-0.001076
0.020618
0.016878
0.019620
0.016815
0.017733
0.008210
0.006578
0.005715
0.006335
0.010508
0.016655
0.016570
0.015246
0.014020
0.009760
0.017570
0.010512
0.013951
0.018614
0.012264
0.007418
0.004903
0.011942
0.018232
0.008554
0.007658
0.021384
0.015380
0.008090
0.007957
0.002478
0.002402
0.001787
0.000772
0.001535
0.001573
0.003309
0.003764
0.006056
0.001840
0.002096
0.008676
0.006614
0.003639
0.001665
0.002756
0.001134
0.001108
0.001047
0.001506
0.002344
0.003481
0.006549
0.007577
0.009927
0.000649
0.000029
-0.000092
0.000249
-0.000129
0.000472
0.000581
0.000582
0.001692
0.001140
-0.001236
-0.000076
0.001675
0.002319
0.003447
0.002670
0.003673
0.002866
0.002528
0.003440
0.004687
0.003750
0.004275
0.003403
0.004683
0.004214
0.004071
0.005038
0.003283
0.003677
0.001915
0.001582
0.000670
-0.000222
-0.000694
-0.000850
0.000174
0.002286
0.000302
0.001716
0.002828
0.006370
0.012443
0.020144
0.010576
0.008867
0.004870
0.004817
0.004704
0.012009
0.012348
0.011068
0.014125
0.012463
0.017683
0.010559
0.007354
0.011437
0.008035
0.008681
0.006078
0.009371
0.008116
0.006691
0.013798
0.020243
0.022651
0.017927
0.015624
0.012405
0.011048
0.009929
0.007507
0.007187
0.007144
0.008956
0.007954
0.020277
0.005238
0.014418
0.010706
-0.000218
0.002181
0.003690
0.004243
0.001004
0.000827
0.002265
0.001962
0.002570
0.001736
0.001737
0.001278
-0.000739
-0.000468
0.000067
-0.000408
-0.000626
-0.000465
-0.000047
0.000141
-0.000074
-0.000230
-0.000361
-0.000773
-0.001091
-0.000964
-0.000253
0.000399
0.001820
0.007442
0.008745
0.008847
0.012969
0.006761
0.012197
0.009908
0.007782
0.009411
0.005649
0.004963
0.005465
0.004931
0.003984
0.006844
0.015396
0.011530
0.017722
0.012692
0.005903
0.003971
0.004130
0.005432
0.004813
0.012241
0.014454
0.011516
0.008353
0.006086
0.007107
0.005466
0.008294
0.018727
0.011539
0.004812
0.006833
0.008089
0.006598
0.003510
0.005363
0.011057
0.013179
0.012846
0.005618
0.003552
0.002581
0.001238
0.001548
0.000837
0.000892
0.001633
0.004351
0.004557
0.011210
0.015939
0.013574
0.016965
0.013984
0.014338
0.015158
0.010637
0.010356
0.008012
0.005954
0.007251
0.008738
0.011611
0.014540
0.026891
0.010942
0.005324
0.008939
0.005557
0.000115
0.004734
0.001912
0.001373
0.002179
0.001494
0.001013
0.001134
0.001679
0.002649
0.003482
0.006763
0.007480
0.007514
0.005605
0.005403
0.005055
0.005537
0.005509
0.005667
0.006838
0.006773
0.007465
0.015574
0.032657
0.025404
0.040331
0.031614
0.042178
0.024717
0.019302
0.014741
0.015461
0.012283
0.017126
0.015323
0.019982
0.021690
0.026334
0.017749
0.016390
0.010883
0.003465
0.003131
0.003332
0.004272
0.009924
0.009723
0.005443
0.002687
0.001326
0.000632
-0.000592
-0.001075
-0.001908
-0.002949
-0.003522
-0.003284
0.003037
0.001428
0.002468
0.004215
0.004515
0.005320
0.008501
0.009920
0.004249
0.007014
0.008600
0.006646
0.007028
0.005873
0.004474
0.005925
0.003474
0.001977
0.001301
0.001185
0.001349
0.001746
0.003322
0.006231
0.005889
0.008134
0.010141
0.005978
0.004029
0.007276
0.006003
0.005097
0.006209
0.009071
0.007955
0.008107
0.017257
0.029983
0.020145
0.044149
0.025770
0.036677
0.029034
0.025142
0.015290
0.017927
0.013429
0.014503
0.014580
0.018617
0.028392
0.016565
0.018587
0.017961
0.009607
0.015484
0.000883
0.000581
0.000146
-0.000043
0.000195
0.000258
0.000226
-0.000224
-0.001242
0.002321
0.003372
0.004570
0.006954
0.012976
0.014131
0.008100
0.005056
0.006655
0.006070
0.010810
0.011551
0.008918
0.008416
0.007193
0.007964
0.007384
0.005908
0.005872
0.005658
0.005029
0.005062
0.006482
0.005747
0.003520
0.003962
0.003032
0.002943
0.003972
0.004372
0.007850
0.008590
0.009041
0.004619
0.003734
0.005919
0.005711
0.012729
0.000421
0.019154
0.012624
0.005844
0.005369
0.002138
0.000032
0.002494
0.004408
0.005780
0.006617
0.008140
0.005115
0.003349
0.002935
0.001789
0.001370
0.001477
0.001680
0.001759
0.001956
0.002612
0.003286
-0.000055
-0.000260
-0.000377
-0.000372
-0.000073
-0.000874
0.000239
-0.000731
0.000896
0.001083
0.001093
0.001093
0.001358
0.002410
0.003573
0.001439
0.001846
0.000644
0.001703
0.003720
0.003852
0.002765
0.005623
0.004361
0.003493
0.003583
0.004354
0.003499
0.003699
0.002101
0.001087
0.000032
0.000180
-0.000352
0.000007
0.000245
0.001124
0.001906
0.002022
0.001275
-0.000281
-0.001733
-0.001122
-0.000820
0.002611
-0.000530
-0.000380
-0.000209
0.000083
0.000060
-0.000062
-0.000289
-0.000488
-0.000638
-0.001115
-0.001081
0.003707
0.000305
-0.000030
-0.000038
-0.000025
0.000565
0.000119
0.000139
-0.000319
0.000222
0.000060
-0.001296
-0.002839
-0.004519
-0.004269
-0.002423
0.000041
0.000077
0.000054
-0.000229
-0.000134
-0.000125
-0.000094
0.001569
0.000892
0.001114
0.001806
0.002046
0.004222
0.003837
0.003018
0.004089
0.008470
0.006399
0.004461
0.002326
0.001065
0.000347
0.000575
0.000666
0.000343
-0.000350
-0.000799
-0.001619
-0.002321
-0.000625
-0.000294
0.002857
0.003716
0.002878
0.003792
0.002924
0.002428
0.002110
0.000683
0.001953
0.000699
0.000067
-0.000653
0.000072
0.000822
0.000116
0.010606
0.002718
-0.000937
0.000351
0.002057
0.003411
0.005535
0.004171
0.007627
0.008717
0.008814
0.005837
0.009864
0.010348
0.010810
0.008623
0.014117
0.015482
0.011199
0.007851
0.009543
0.012504
0.010628
0.010390
0.006951
0.003873
0.003654
0.004015
0.002156
0.000816
0.001004
0.003854
0.003107
0.002767
0.002768
0.002906
0.003435
0.004086
0.004182
0.007367
0.006910
0.003856
0.003650
0.003824
0.006112
0.007872
0.013867
0.005315
0.007589
0.008598
0.010303
0.009836
0.011037
0.002136
0.087169
0.010635
0.006179
0.011367
0.004909
0.006889
0.003857
0.002211
0.001751
0.001170
0.001140
0.001384
0.001941
0.002465
0.002746
0.002642
0.003135
-0.000022
-0.000298
-0.000691
-0.001829
-0.002962
-0.004165
-0.004706
-0.004157
-0.000632
-0.000242
-0.000333
-0.000283
-0.000618
-0.000180
-0.000112
0.001160
-0.000238
-0.002198
-0.002148
-0.002384
-0.001888
0.018757
0.020327
0.019967
0.010899
0.016693
0.011224
0.010286
0.011581
0.006621
0.006410
0.005727
0.010515
0.005027
0.070623
0.000481
0.025981
0.002790
0.003881
0.001139
0.000556
0.003883
0.004051
0.005959
0.006435
0.003901
0.002942
0.003878
0.004473
0.006452
0.005958
0.001024
0.002976
0.002938
0.004435
0.007158
0.008067
0.009666
0.006114
0.006338
0.005753
0.005582
0.010240
0.009341
0.008885
0.009844
0.008095
0.006370
0.005250
0.005310
0.004562
0.005255
0.003764
0.003501
0.003877
0.003246
-0.000175
-0.000802
-0.001067
-0.001333
-0.000772
-0.001147
-0.000665
-0.001268
0.001043
0.001177
0.000409
0.000422
0.001243
0.001980
-0.001161
0.001002
0.001109
0.001895
0.003497
0.003730
0.002850
0.001508
0.001646
0.002601
0.003392
0.001657
0.003100
0.002423
0.003798
0.004324
0.004104
0.003542
0.003296
0.003630
0.001811
0.004180
0.001954
0.004018
0.003493
0.002725
0.003728
0.006082
0.005414
0.003466
0.001565
0.001218
0.000238
0.000168
0.000497
0.000648
-0.000621
-0.001402
-0.002531
-0.001032
-0.001303
0.000587
0.000160
0.000554
0.000459
-0.006094
-0.010988
-0.009050
-0.005999
-0.004384
-0.002324
-0.002115
-0.001349
-0.000825
-0.000809
-0.000871
-0.000961
-0.000897
0.000678
-0.006199
-0.007740
-0.000383
-0.000527
0.003242
0.003115
0.002084
0.001643
0.001364
0.001389
0.001753
0.002675
0.003699
0.007768
0.007787
0.007269
0.006617
0.007732
0.005166
0.008393
0.008279
0.006416
0.006053
0.009613
0.008112
0.033377
0.029137
0.023093
0.026049
0.018031
0.017434
0.016513
0.013172
0.018804
0.015408
0.021013
0.022912
0.019528
0.017075
0.013957
0.001739
0.001436
-0.002003
0.000410
0.002345
-0.000417
0.001142
0.000588
0.000259
0.001329
0.001635
0.000721
0.002564
0.001277
0.001497
0.001207
-0.000081
0.002467
0.003252
0.001983
0.003576
0.003256
0.004017
0.003781
0.004428
0.003592
-0.000612
0.004391
0.004163
0.002694
0.003569
0.002898
0.002691
0.003293
0.004185
0.005010
0.003443
0.004767
0.005127
0.002518
0.002732
0.003324
0.005203
0.009278
0.013363
0.017314
0.013066
0.003092
0.009401
0.012455
0.002725
0.005851
0.049821
0.016732
0.036271
0.008404
0.005365
0.008140
0.003319
0.027873
0.004739
0.001458
0.001863
0.001325
0.002793
0.003615
0.005837
0.007983
0.007463
0.011011
0.007200
0.008742
0.011408
0.010665
0.012876
0.013912
0.014105
0.017074
0.010649
0.008056
0.013475
0.011676
0.009303
0.007291
0.006160
0.005097
0.004358
0.000904
0.001627
0.000366
0.023540
0.004198
0.003124
0.002635
0.002791
0.003688
0.005676
0.007911
0.009034
0.009974
0.011349
0.009308
0.011445
0.015050
0.011055
0.016681
0.011635
0.021597
0.011430
0.009735
0.013396
0.011992
0.010552
0.011319
0.008270
0.006548
0.006104
0.004682
0.002592
0.002085
0.000152
0.000353
0.001171
0.001021
0.000883
0.000379
-0.000129
-0.000860
-0.000663
-0.001379
-0.000661
0.001541
0.001919
0.002664
0.000501
-0.001533
-0.011157
-0.006908
-0.008730
-0.010357
-0.009740
-0.007543
-0.006457
-0.006190
-0.002918
-0.002579
-0.001766
-0.000431
-0.000820
-0.000522
-0.000156
0.000158
0.002885
0.003033
0.003710
0.004418
0.003123
0.004456
0.001418
0.002470
0.003707
0.005380
0.004975
0.006254
0.008520
0.006628
0.006187
0.007029
0.005921
0.006548
0.008853
0.010324
0.010249
0.007651
0.009823
0.006955
0.005150
0.004335
0.004246
0.004422
0.004856
0.004189
0.003031
0.003241
0.004739
0.002547
0.003514
0.004351
0.004700
0.002933
0.002466
0.002133
0.001029
0.000451
0.001856
0.001583
0.001594
0.001022
0.015057
0.019479
0.013562
0.015189
0.011159
0.009572
0.015991
0.008910
0.004457
0.004070
0.005209
0.014668
0.001508
0.005454
0.003709
0.003667
0.004386
0.003925
0.003579
0.002848
0.003837
0.003100
0.002324
0.002512
0.002523
0.003084
0.005054
0.003233
0.002455
0.002518
0.002823
0.003236
0.003282
0.003440
0.004749
0.006921
0.008786
0.017504
0.016235
0.035524
0.000267
0.006218
0.005160
0.016338
-0.000002
0.020341
0.017099
0.014385
0.005187
0.004263
0.005226
0.003209
0.002439
0.001872
0.001773
0.001601
0.001653
0.001997
0.002327
0.002300
0.002142
0.017179
0.011313
0.002915
0.003197
0.003569
0.004225
0.001804
0.001562
0.001526
0.001875
0.002347
0.003698
0.008341
0.006263
0.005524
0.004972
0.008215
0.004515
0.005336
0.006264
0.008936
0.007865
0.008416
0.007569
0.010875
0.017486
0.022205
0.018451
0.030737
0.022999
0.022926
0.021585
0.018220
0.016468
0.022703
0.014429
0.016398
0.013353
0.017734
0.016627
0.020751
0.015287
0.020028
0.001795
0.000639
0.001242
-0.001189
0.002044
0.001469
0.001628
0.002366
0.002097
0.001814
0.002824
0.002926
0.001270
0.001763
0.001789
0.004035
0.003305
0.003040
0.003394
0.003011
0.004214
0.004461
0.001371
0.000850
0.000329
-0.000570
-0.000605
-0.000041
-0.001212
-0.000749
0.005195
0.010250
0.003625
0.002509
0.000086
-0.002578
-0.007466
-0.007475
-0.004067
-0.006119
-0.008583
-0.007468
-0.007009
-0.004678
-0.002582
-0.000714
0.002444
0.000895
0.000111
0.000573
-0.000039
0.000196
-0.000548
0.001195
-0.001525
-0.001615
0.002736
0.002587
0.003004
0.004718
0.004931
0.005518
0.007123
0.006308
0.006019
0.005729
0.008431
0.006416
0.005888
0.008927
0.007691
0.009464
0.009301
0.006434
0.006109
0.003880
0.003842
0.004344
0.004021
0.002879
0.003595
0.003762
0.003473
0.020481
0.013957
0.011948
0.013362
0.013160
0.012096
0.009253
0.008459
0.005622
0.001829
0.001695
0.001738
0.001866
0.002082
0.004635
0.003955
0.004572
0.006254
0.004552
0.006500
0.004851
0.005340
0.004577
0.006514
0.008805
0.010129
0.008921
0.011776
0.021157
0.028481
0.021736
0.020155
0.023559
0.021584
0.018812
0.025346
0.013472
0.018781
0.014165
0.022886
0.020222
0.021042
0.016522
0.010073
0.021002
0.014362
0.016389
0.026597
0.003846
0.003217
0.003028
0.003043
0.003664
0.004371
0.001913
0.002128
0.001348
0.000903
0.001134
0.001407
0.000352
0.002742
0.002279
0.003148
0.003136
0.003233
0.003766
0.004861
0.004057
0.002773
0.002097
0.002134
0.002747
0.002964
0.002578
0.002205
0.003733
0.002740
0.003847
0.002862
0.002423
0.002092
0.004475
0.006149
0.013994
0.011677
0.021154
0.040737
-0.000164
0.004894
0.004225
0.004996
0.000351
0.001305
0.005975
0.006188
0.020318
0.013538
0.014972
0.015526
0.009264
0.004846
0.003394
0.002806
0.002316
0.001704
0.001665
0.001599
0.001581
0.001533
0.001694
0.001672
0.001821
-0.009152
-0.006837
-0.005548
-0.002028
-0.001934
0.000224
0.000019
0.000755
-0.000839
-0.000810
-0.000023
-0.001094
0.000726
0.001385
0.001233
-0.000504
0.001720
0.010199
0.015745
0.015065
0.011539
0.022460
0.016164
0.015906
0.012945
0.010622
0.010527
0.010445
0.011629
0.011327
0.008873
0.006186
0.004733
0.002428
0.003168
0.000538
0.002590
0.002940
0.007104
0.001922
0.004247
0.004506
0.006546
0.005821
0.005101
0.008318
0.008276
0.007579
0.006671
0.007016
0.006925
0.007382
0.006925
0.005215
0.003526
0.002678
0.002780
0.003042
0.003606
0.002482
0.002872
0.001679
0.001012
0.001359
0.002562
0.001685
0.002356
0.003123
0.022133
0.013858
0.011575
0.009643
0.001576
0.001646
0.001668
0.002312
0.004395
0.000366
-0.000985
-0.000567
-0.004465
-0.005595
0.023011
0.011525
0.008399
0.008668
0.007092
0.004048
0.003302
0.002210
0.001767
0.001765
0.001432
0.001419
0.001672
0.001676
0.001840
0.001618
0.001579
0.018050
0.011129
0.020419
0.014215
0.010840
0.015535
0.011039
0.011461
0.011705
0.010368
0.014786
0.013103
0.008637
0.004801
0.003532
0.003852
0.001469
0.000744
0.001623
0.001045
0.000795
0.000289
-0.000562
-0.001485
0.000134
-0.003011
0.001161
0.005603
0.042551
0.003980
0.002256
0.001519
0.002871
0.002819
0.002117
0.002329
0.002617
0.001769
0.001550
0.003388
0.004232
0.002393
0.001978
0.002070
0.003495
0.003048
0.001615
0.019778
0.020509
0.017480
0.020876
0.019960
0.024156
-0.006309
-0.006274
-0.005100
-0.001256
-0.000636
-0.001118
-0.001603
-0.001764
-0.001407
-0.000586
0.000048
0.000004
0.001048
0.000940
0.002314
0.001020
0.003135
0.003370
0.002824
0.003126
0.002817
0.003675
0.003656
0.002651
0.003700
0.001963
0.001416
0.001182
0.002350
0.003281
0.002297
0.004568
0.004579
0.004064
0.004546
0.004560
0.004753
0.005749
0.005476
0.008648
0.006154
0.018084
0.018500
0.016331
0.016707
0.019389
0.022121
0.014942
0.013585
0.018390
0.017439
0.017059
0.025864
0.002887
0.003208
0.004528
0.005029
0.006936
0.007740
0.007174
0.007384
0.009260
0.011401
0.014418
0.008873
0.018792
0.018988
0.003696
0.001602
0.000900
0.003346
0.004145
0.004364
0.003865
0.003393
0.002164
0.003410
0.006760
0.007503
0.007108
0.007622
0.006760
0.005881
0.004062
0.003560
0.002845
0.002274
0.001935
0.002152
0.002355
0.002761
0.017909
0.012474
0.011406
0.014644
0.014927
0.015502
0.013890
0.011721
0.013412
0.015183
0.012781
0.006755
0.005518
0.004631
0.005475
0.001692
0.001942
0.000909
0.000956
0.000928
0.000138
-0.000840
-0.001788
-0.001038
-0.000687
0.003929
0.012782
0.041611
0.005403
0.007878
0.002735
0.009526
0.005034
0.004760
-0.000231
-0.003618
-0.005500
-0.004891
-0.003975
-0.001230
0.000159
-0.000190
-0.001818
-0.001175
0.000173
-0.000252
0.001647
0.001675
0.002935
0.011569
0.013635
0.011220
0.006147
0.004295
0.002828
0.002282
0.002657
0.001883
0.001660
0.001680
0.001682
0.001701
0.001616
0.001995
0.002107
0.019144
0.001434
0.001121
0.001365
0.001760
0.002580
0.001845
0.001754
0.003162
0.008872
0.017241
0.038401
0.013665
0.009592
-0.000330
0.008997
0.002591
0.002072
0.002903
0.004288
0.005211
0.004998
0.003221
0.005399
0.005326
0.003726
0.009912
0.007298
0.004542
0.007643
0.006393
0.006553
0.006809
0.003602
0.004756
0.003146
0.003633
0.002148
0.001658
0.001645
0.001868
0.018905
0.021223
0.018436
0.019047
0.018589
0.014952
0.017698
0.019806
0.014235
0.017175
0.017517
0.010621
0.016165
-0.000351
0.002366
0.001819
0.002671
0.003190
0.005100
0.002073
0.003485
0.003149
0.002504
0.003339
0.002482
0.005532
0.003995
0.015569
0.016867
0.011653
0.013948
0.011597
0.013517
0.011126
0.010341
0.006360
0.006993
0.004676
0.004365
0.002504
0.001309
0.001581
0.001233
0.000877
-0.000031
-0.001428
-0.002393
-0.001809
-0.000606
0.004018
0.008634
0.005521
0.006145
0.006464
0.011648
0.004944
0.002395
0.010649
0.003902
0.002435
-0.000767
-0.003903
-0.004354
-0.003692
-0.002874
-0.001314
-0.000272
0.000259
-0.001307
-0.000167
-0.001069
0.000200
0.002371
0.003337
0.004397
0.005151
0.005421
0.006565
0.010252
0.007960
0.010530
0.010880
0.007510
0.011109
0.018857
0.014116
0.015176
0.020396
0.001295
0.002342
0.005528
0.004450
0.003295
0.003670
0.004162
0.004852
0.006935
0.002647
0.002156
0.002112
0.002723
0.002779
0.001613
0.001593
0.002248
0.002200
0.022967
0.011830
0.015069
0.012869
0.010568
0.017370
0.014782
0.009255
0.009369
0.005710
0.004294
0.002141
0.002268
0.001743
0.001321
0.001143
0.000692
-0.000108
-0.001780
-0.002505
-0.001892
0.000105
0.002702
0.005833
0.002002
0.009411
0.007359
0.043607
0.000874
0.002921
0.017040
0.002172
0.003857
0.001440
-0.003035
-0.003314
-0.002987
-0.002042
-0.001458
-0.000186
0.000280
-0.000526
0.000054
0.001482
-0.000082
0.000635
0.000880
0.018515
0.017873
0.016738
0.016820
0.017164
0.016313
0.019754
0.018475
0.014325
0.017817
0.000289
-0.000783
0.007797
0.003076
0.002919
0.001523
0.009332
0.007767
0.004000
0.004467
0.004178
0.002635
0.004097
0.003462
0.003723
0.005529
0.005701
0.006464
0.006582
0.007166
0.004749
0.006303
0.005080
0.006534
0.003313
0.004640
0.003307
0.001922
0.002706
0.001272
0.000999
0.002020
0.002303
0.002319
0.002460
0.004609
0.005436
0.005485
0.004286
0.006873
0.008520
0.010607
0.007076
0.009798
0.012112
0.014500
0.014005
0.002612
0.000243
0.001528
0.002298
0.001775
0.002790
0.005209
0.004456
0.005004
0.002489
0.003037
0.003725
0.002050
0.001807
0.003675
0.012042
0.005409
0.005481
0.002856
0.013500
0.011070
0.000058
0.008446
0.002145
0.003586
0.003900
0.003723
0.000806
0.001661
0.004988
0.005670
0.005463
0.002706
0.002611
0.003136
0.017225
0.016856
0.014404
0.020944
0.019152
0.011300
0.009704
0.007857
0.005443
0.003427
0.002714
0.002441
0.002307
0.001420
0.001207
0.000653
-0.000124
-0.001961
-0.002545
-0.001313
0.000086
0.002223
0.003996
0.002206
0.008966
0.009086
0.039165
0.006874
0.006978
0.003482
0.004051
0.006121
0.002534
0.002719
0.001646
0.002368
0.001704
0.001713
0.002166
0.001625
0.000965
0.000595
-0.000399
-0.000173
0.000006
-0.000109
0.001394
0.001341
0.002694
0.001179
0.002304
0.003197
0.003378
0.004166
0.002852
0.003496
0.001847
0.003397
0.003751
0.005444
0.003875
0.003611
0.003749
0.004388
0.004651
0.001905
0.004575
0.002686
0.003690
0.004929
0.003981
0.003627
0.003921
0.002301
0.003635
0.002489
0.001392
0.000971
0.000950
0.002783
0.002487
0.003627
0.005547
0.004058
0.003890
0.006034
0.005362
0.006120
0.008300
0.010841
0.015890
0.014063
0.002662
0.002856
0.003289
0.003419
-0.000183
0.003368
0.002804
0.002169
0.015119
0.014611
0.017971
0.016178
0.017002
0.002907
0.016768
0.011652
0.012443
0.010591
0.008185
0.005192
0.004594
0.003179
0.003405
0.002364
0.002201
0.002240
0.001376
0.000917
-0.000110
-0.001514
-0.001823
-0.001208
0.000716
0.001766
0.004379
0.004228
0.004583
0.011197
0.003411
0.016836
0.006390
0.010740
0.003745
0.006004
-0.001372
-0.002309
-0.001888
-0.001229
-0.000876
-0.000454
-0.000282
0.000611
0.001108
0.001086
0.000710
0.002731
0.001785
0.001601
0.000049
0.001241
0.003112
0.003356
0.003064
0.003508
0.002019
0.002119
0.001707
0.000636
0.001408
0.000116
0.000144
0.001052
0.001958
0.002455
0.002209
0.002231
0.001767
0.003086
0.003472
0.001678
0.001398
0.000755
0.000353
-0.000546
-0.000887
-0.001536
0.004191
0.002519
0.001308
0.004754
0.003077
0.002970
0.002453
0.006703
0.004311
0.003285
0.003524
0.004140
0.010300
0.008384
0.016370
0.015350
0.015185
0.016993
0.013838
0.026711
-0.000358
-0.000717
0.001267
0.001078
0.000509
0.000169
-0.000413
-0.001148
-0.001208
0.000181
-0.000726
0.000488
0.000994
0.001714
0.001584
0.002326
0.002247
0.001870
0.002899
0.002532
0.004831
0.002798
0.003735
0.002627
0.003629
0.003149
0.003137
0.005831
0.005695
0.010963
0.004705
0.003440
0.012708
0.010520
0.003474
0.002336
0.002572
0.001635
0.001231
0.000083
0.005407
0.002236
0.003213
0.002391
0.001844
0.000400
0.003452
0.001826
0.003146
0.002105
0.002664
-0.000305
0.000475
0.000008
-0.000527
-0.000561
-0.002507
0.029189
0.072980
0.022681
0.014873
0.015101
0.039233
0.000919
0.001499
-0.000607
0.021047
0.014137
0.027102
0.000563
0.006353
0.002723
0.003760
0.002358
0.012808
0.003374
0.006234
0.000290
0.000913
0.011279
0.009776
0.007869
0.002266
0.003451
0.002060
-0.001302
-0.000714
0.003082
0.003859
0.004499
0.002574
0.003038
0.002796
0.002825
0.003722
0.003596
0.013125
0.020303
0.021243
0.003633
0.002778
0.001737
0.002096
0.003884
0.002282
0.002653
0.003815
0.003090
0.000028
0.000744
0.000310
0.020659
0.017624
0.003162
0.008405
0.003889
0.000209
0.000066
-0.001460
0.003395
0.003746
0.002655
0.001838
0.004117
0.007449
0.008328
0.001303
0.000746
0.000677
0.002009
0.001943
0.002509
0.002024
0.002024
0.002381
0.017367
0.020083
0.015878
0.000541
0.010031
0.006812
0.039267
0.014329
0.010986
-0.000528
-0.001606
0.004335
0.005520
0.003795
0.002452
0.008702
0.005650
0.002917
0.013449
0.019228
0.010322
0.000545
0.003449
-0.000390
0.000623
0.000056
0.000758
0.000030
0.000080
0.000151
0.000347
0.001239
0.010544
0.008335
-0.000410
-0.000847
-0.001246
0.000468
-0.000213
-0.000292
-0.001321
0.000719
-0.000286
-0.001698
-0.000531
0.000521
0.000279
0.000626
0.002388
0.000132
0.000145
0.000089
0.000017
0.000529
-0.000706
0.000658
0.015027
0.003272
0.003478
0.002753
0.002405
0.000322
-0.000290
-0.000972
-0.000293
0.000212
0.000349
0.000435
0.001064
0.000430
0.000544
0.000999
0.000235
-0.000777
0.001241
0.001791
0.000113
-0.000217
0.012838
0.013976
0.013544
0.009411
0.006811
0.006594
0.006601
0.004374
0.004461
0.003083
0.002755
0.002698
0.001473
0.001134
0.001525
0.002112
0.003589
0.007076
0.009692
0.016632
0.016404
0.004462
0.022053
0.004663
0.008926
0.002645
0.007501
0.000295
-0.001801
-0.003021
-0.003168
-0.003341
-0.003544
-0.002649
-0.003160
-0.002582
-0.000757
-0.001962
-0.000645
0.004206
0.004631
0.006054
0.000776
0.003119
-0.000071
-0.000148
-0.001924
-0.003223
-0.010339
-0.011950
-0.001948
-0.000011
0.000581
0.000356
0.002479
0.002840
0.004396
0.006470
0.007091
0.005899
0.009263
0.004308
0.011723
0.009370
0.018474
0.013286
0.012817
0.027929
0.011340
0.027854
0.015157
0.037110
0.027078
0.041088
0.038926
0.035189
0.032834
0.034342
0.034574
0.033860
0.027294
0.030780
0.023436
0.033333
0.018330
0.014748
0.019375
0.010831
0.012037
0.005324
0.007113
0.007505
0.007323
0.015299
0.005423
0.011266
0.012869
0.012780
0.011319
0.014814
0.010634
0.016113
0.016134
0.015146
0.020520
0.000089
0.000279
0.001192
0.002472
0.000553
0.006874
0.000522
-0.000798
-0.000529
-0.000999
-0.000453
-0.000731
-0.000987
-0.000276
0.001070
-0.000452
0.001867
-0.000384
-0.002162
-0.006512
-0.001305
-0.000869
0.001145
0.006263
0.001458
0.000983
0.001208
-0.000394
0.000869
-0.002179
-0.000244
-0.000967
0.001248
0.003436
-0.001282
0.008495
0.058276
0.036373
0.088683
0.023624
0.004400
0.002272
0.001622
-0.001002
-0.000219
0.003043
0.001940
0.005529
0.010340
0.008042
0.001755
-0.000394
-0.009088
-0.001717
-0.000192
0.002276
-0.001200
-0.002983
0.000858
-0.001763
-0.000739
-0.001623
0.000321
0.001082
0.003025
0.000537
0.002108
0.000462
-0.000865
0.002492
0.000026
0.000273
0.001474
0.001597
0.001465
0.001954
0.003862
0.001754
-0.000196
-0.000174
-0.000390
-0.000051
0.000368
0.000304
0.001063
0.001382
0.000964
0.000215
-0.002413
-0.003163
-0.000640
0.000711
-0.000297
-0.000447
-0.000034
-0.001408
-0.001161
0.000151
0.007370
0.004961
0.002559
0.000717
-0.003329
-0.001012
-0.003046
-0.003092
-0.007354
-0.014241
-0.014701
-0.005670
-0.007244
-0.000320
-0.000142
-0.000773
-0.000000
0.000628
0.002647
0.002111
0.003297
0.003324
0.004682
0.003434
0.006400
0.006588
0.009042
0.008267
0.008797
0.012139
0.011513
0.011103
0.017092
0.019881
0.024310
0.029740
0.029147
0.026656
0.027575
0.028320
0.026013
0.024076
0.021719
0.022581
0.021980
0.020330
0.014253
0.013743
0.011006
0.009970
0.004156
0.004476
0.004223
0.004293
0.008959
0.007195
0.007215
0.006624
0.006142
0.009382
0.007155
0.008349
0.009000
0.011770
0.012656
0.019082
0.009996
0.015227
-0.000074
-0.000329
-0.000016
-0.002175
-0.000469
-0.000901
0.000056
0.000087
0.000619
0.000594
-0.002471
-0.009633
-0.003721
-0.004502
0.000803
0.004935
0.118200
0.019204
0.006935
0.001732
-0.000128
-0.002078
0.000408
-0.005543
0.002018
0.007081
-0.000043
0.012509
0.000146
0.000450
-0.000722
0.000517
0.000188
0.002645
0.002013
0.005079
0.002486
0.001707
-0.000032
0.001825
-0.004748
-0.007672
-0.009328
-0.000199
0.001947
0.033146
0.042078
0.061035
0.025875
0.014025
0.001864
0.001391
-0.002945
-0.001165
-0.005241
-0.004970
0.006203
-0.001353
-0.000760
0.011538
0.023290
0.020016
0.005517
0.000885
-0.000577
-0.002888
-0.003437
-0.003230
-0.005364
-0.005277
-0.003304
-0.004234
-0.001711
0.008278
0.007348
0.005875
0.007308
0.002845
0.006954
0.002888
0.004592
0.006316
0.003464
0.004547
0.003778
0.003937
0.015234
0.016443
0.026911
0.014122
0.004788
0.006565
0.006011
0.000115
-0.001526
-0.008021
-0.007995
-0.010175
-0.001825
-0.001456
-0.000420
0.014756
0.004083
0.001811
0.002250
0.009252
0.005115
0.000538
0.001585
0.005976
0.032246
0.000580
0.006724
0.004357
0.003216
0.002953
0.001680
0.002900
0.003761
-0.000054
0.000031
-0.000481
-0.000159
0.000894
0.001794
0.003297
0.002824
-0.000822
-0.004227
-0.006627
-0.004387
-0.000632
-0.001411
-0.000620
-0.000446
-0.000303
-0.000156
-0.000307
0.002341
0.005863
0.002452
0.016222
0.008948
0.006363
0.004810
0.005661
0.007478
0.006216
0.006463
0.006071
0.006006
0.009158
0.004044
0.011871
0.013853
0.033154
0.037313
0.011495
0.005860
0.063103
0.048659
0.063750
0.000846
0.007016
-0.000004
0.015802
0.002444
0.001421
0.001045
0.001599
-0.004227
-0.008997
-0.015592
-0.015595
-0.013736
-0.014472
-0.003297
-0.000459
-0.000094
-0.002043
-0.003534
-0.002128
-0.000997
0.000466
0.000594
0.001868
0.002845
0.003155
0.003450
0.004072
0.005692
0.006017
0.006254
0.007251
0.008688
0.008105
0.004089
0.004566
0.007493
0.012080
0.015318
0.016322
0.015776
0.021096
0.022015
0.022667
0.018054
0.020073
0.022186
0.020780
0.019367
0.016239
0.017000
0.014581
0.012686
0.013102
0.012947
0.008391
0.004150
0.000959
0.002294
0.004239
0.004444
0.004268
0.007989
0.006326
0.004984
0.005456
0.005379
0.006149
0.007441
0.001686
0.001107
0.002011
0.004574
0.004643
0.000131
0.001477
0.003542
0.020279
-0.002499
-0.013700
-0.010221
0.000330
0.007883
0.021981
0.035538
0.011899
0.007161
0.001457
-0.001240
-0.002147
-0.001673
0.003223
0.001171
0.000311
0.006036
0.004068
0.000234
-0.003984
0.028541
0.005694
0.001330
-0.001259
-0.004230
-0.003778
-0.003955
-0.010463
-0.006245
-0.009092
-0.004816
0.027459
0.035588
-0.006294
0.010447
-0.001195
-0.002981
0.024698
0.020598
0.007635
0.012094
0.006808
0.029794
0.036978
0.036662
0.007237
0.016516
0.004926
0.005013
0.007416
0.026481
-0.010328
0.078756
0.114568
0.018600
0.028476
0.012599
0.009151
0.007401
0.026433
0.025140
0.030597
0.015911
0.017989
0.003963
0.039331
0.053130
0.010129
0.012375
0.004535
0.003492
0.002611
0.001676
0.001477
0.002858
0.000370
-0.000120
0.000248
0.001034
0.001802
0.002719
0.002459
0.000088
-0.005153
-0.008854
-0.005992
-0.003936
-0.002341
-0.000629
0.000212
0.000440
-0.000238
-0.000256
-0.000000
0.000756
0.003108
0.016961
-0.007146
-0.009290
-0.014018
-0.008096
-0.009269
-0.001697
-0.000529
0.000242
-0.009130
-0.006405
-0.003792
-0.003047
-0.000133
0.000829
0.002407
0.001319
0.001214
0.002175
0.003877
0.004022
0.003525
0.002718
0.003918
0.005907
0.002486
0.002926
0.001886
0.003860
0.007576
0.007000
0.010580
0.011351
0.011312
0.011782
0.013154
0.016917
0.015410
0.014868
0.019426
0.017248
0.015299
0.014613
0.013033
0.012157
0.008793
0.007870
0.009955
0.008193
0.001706
0.000496
0.000381
0.002308
0.004174
0.002058
0.004237
0.007133
0.004081
0.003125
0.003605
0.004427
0.001213
-0.001275
0.000396
-0.000614
-0.001608
-0.004267
0.002868
0.003616
0.006373
0.009262
0.017989
0.012752
0.018029
0.014345
0.020718
0.024897
0.036361
0.010909
0.011192
0.005565
0.050952
0.058899
0.031864
0.023191
0.001037
0.001558
0.001610
0.004697
0.002283
0.001665
0.001191
0.003009
0.001982
0.000866
0.004011
0.009938
0.010719
0.002644
-0.004535
-0.005077
0.000170
0.004426
0.018835
0.029603
0.030880
0.028811
0.026119
0.019339
0.009855
0.006075
0.001967
-0.001769
-0.002621
-0.001596
0.002495
0.013044
0.004027
0.016792
0.001534
-0.000778
0.000364
-0.002688
0.028370
0.004377
-0.002526
-0.002704
-0.000966
-0.003478
-0.014611
-0.010405
-0.001822
-0.003974
-0.008095
-0.010618
-0.000772
-0.004757
0.016993
-0.003669
-0.006883
-0.003774
-0.002326
-0.002985
-0.004387
-0.003775
-0.002397
-0.001697
-0.001970
-0.000649
0.001980
-0.000997
-0.000980
0.002776
0.002931
0.002191
0.003629
0.002959
0.000209
0.000284
0.000333
-0.000015
0.002990
0.000458
0.000524
0.004236
0.015214
0.011333
0.007720
0.008321
0.000582
0.000858
0.001674
0.011369
-0.000265
-0.001316
-0.001285
0.000368
0.000553
0.000756
0.000424
0.000125
0.000047
0.000070
0.000497
0.001067
0.001269
0.003583
0.005154
0.009908
0.006940
0.010122
0.007878
0.015773
0.015796
0.029286
0.007325
0.021416
0.013829
0.016284
0.039775
0.038554
0.016506
0.030658
0.005402
0.001365
0.000495
0.000714
-0.000388
-0.001300
0.000479
-0.000123
0.002979
0.006321
0.012385
0.022294
0.052320
0.076112
0.069968
0.028892
0.017657
0.012963
0.011192
0.012176
0.021411
0.026826
0.032894
0.011523
0.020504
0.034689
0.034184
0.019549
0.012363
0.007472
0.005042
0.004119
0.002760
0.001910
0.002263
0.000650
0.009954
0.010588
0.015583
0.016906
0.013432
0.014452
0.012425
0.015312
0.015683
0.015546
0.010960
0.011863
0.008375
0.006525
0.006106
0.010916
0.002148
-0.001830
-0.001361
0.000183
0.001633
0.003730
0.002252
0.005201
0.005945
0.002514
0.001898
0.001644
0.004673
0.009534
0.040621
0.000423
-0.003633
-0.011555
-0.001419
0.000330
0.000362
0.001155
0.001441
0.001080
0.000572
0.000401
0.000392
0.000264
0.000471
-0.000228
0.006223
0.005747
0.003470
0.004300
0.004598
0.011758
0.009525
0.023452
0.017517
0.017389
0.031836
0.020457
0.020983
0.027702
0.039483
0.011488
0.015962
0.004169
0.001569
0.000175
-0.000207
-0.000271
0.000163
0.001817
0.003728
0.006128
0.005016
0.000477
-0.001820
0.000171
0.004809
0.016783
0.034064
0.020335
0.030687
0.022061
0.023148
0.013723
0.000232
0.000372
0.001875
0.024586
0.003964
0.000298
-0.000115
-0.001135
0.018273
0.002678
0.018958
0.000850
-0.001945
-0.001784
-0.002442
-0.005159
-0.004506
-0.002631
-0.001419
0.000238
0.000035
0.000232
-0.001038
0.000093
0.000615
0.001480
0.002172
0.000905
0.002009
0.001139
0.001542
-0.000943
-0.002518
-0.000849
0.000614
0.003635
0.002231
0.003170
0.017795
0.029066
0.016002
0.014162
0.016152
0.010264
0.005628
0.008952
0.017600
0.013556
0.004961
-0.000978
-0.002643
-0.002294
0.003188
0.002539
0.002082
0.006551
0.001601
0.006350
0.004783
0.009846
0.008987
0.012307
0.011647
0.010112
0.015214
0.015627
0.016134
0.012324
0.010200
0.013274
0.010101
0.009344
0.007188
0.008030
0.004667
0.005288
0.003696
-0.001476
-0.002270
0.000612
0.005007
0.003948
0.002142
0.004208
0.002053
0.003154
0.006845
0.015357
0.015565
0.086975
0.034349
0.027436
0.016661
-0.000605
0.002586
-0.000267
0.003175
0.002076
0.002224
0.001177
0.000689
0.000757
0.000363
0.000339
0.000046
0.024193
0.017529
0.015003
0.017279
0.009102
0.011660
0.009054
0.002098
0.003026
0.005959
-0.000782
-0.002073
-0.003791
-0.000649
0.000427
0.002416
0.002308
0.001759
0.000781
0.006042
0.004999
0.002212
0.000931
0.055260
0.040537
0.029828
0.019810
0.023269
0.018272
0.017737
0.024420
0.025727
0.028929
0.027129
0.014528
0.014317
0.049180
0.027234
0.018981
0.012121
0.010030
0.007089
0.006679
0.005432
0.002105
0.018073
0.001994
0.003582
0.001639
0.020085
-0.000522
0.010969
0.011799
0.014412
0.017198
0.020479
0.016104
0.019987
0.000825
0.004157
0.005707
0.009079
0.011024
-0.000751
0.000699
0.001250
0.000197
0.002121
0.000840
0.002986
0.002915
0.000475
0.000339
0.000420
-0.000383
0.000735
-0.001608
-0.005435
-0.005487
-0.002396
-0.001937
0.000875
0.004373
0.004371
0.004857
0.007015
0.009105
0.012176
0.011932
0.010111
0.011103
-0.000689
0.001229
0.002838
0.000943
0.004652
0.004544
0.002955
0.004792
-0.000342
0.004671
0.006292
-0.002860
-0.000554
0.002146
0.001940
0.003787
0.007847
-0.004763
-0.003226
0.009579
0.010486
0.010779
0.010370
0.008369
0.006826
0.004257
0.004812
0.004268
0.005474
0.003965
0.001025
0.001195
0.004286
0.001827
0.001113
0.009520
0.006241
0.002070
0.000557
0.000166
-0.000117
0.000618
0.000418
0.001793
0.003642
0.005104
0.002011
0.001042
0.000837
0.002972
-0.002617
-0.002330
-0.002387
-0.001250
0.002366
0.017165
0.010238
0.015362
0.013337
0.011756
0.010186
0.008072
0.006019
0.021462
0.022053
-0.003331
-0.003171
0.009230
0.016424
0.041022
0.054310
0.034935
0.019428
0.013958
0.008855
0.001127
0.000421
0.000249
0.002417
0.003870
0.003462
0.001574
0.001381
0.000607
0.000615
0.000448
0.000217
0.004512
0.003746
0.008563
0.012517
0.015302
0.020616
0.018261
0.019340
0.028313
0.036493
0.042434
0.042244
0.032924
0.024773
0.025064
0.026394
0.016131
0.019385
0.020469
0.027040
0.005266
0.007621
0.000408
-0.003508
-0.005515
-0.004116
-0.005051
-0.000795
-0.003680
-0.005393
-0.000256
0.001270
0.002602
0.004415
0.006914
0.010144
0.008468
0.012494
0.009217
0.008036
0.011284
0.010532
-0.003770
-0.001065
-0.008139
-0.003279
-0.001900
-0.001938
0.000415
-0.001195
-0.001742
-0.000315
0.001173
0.001954
0.000003
0.005824
0.010785
0.002710
0.004353
0.007491
0.010818
0.008933
0.008875
0.008823
0.008196
0.008597
0.005033
0.008128
0.003509
0.009259
0.003833
0.004214
0.003587
0.006070
0.006322
0.007115
0.004463
0.003504
0.013494
0.041403
0.029795
0.031724
0.021034
0.020486
0.015506
0.011091
0.012769
0.018320
0.017185
0.025448
0.026995
0.022850
0.044744
0.022416
0.027483
0.020323
0.024854
0.022653
0.014641
0.009781
0.009941
0.012661
0.012218
0.013591
0.015166
0.014309
0.014876
0.013506
0.022314
0.030551
0.024917
0.011345
0.005222
0.001524
0.000116
0.000013
-0.000245
-0.000315
0.003189
0.014993
0.023469
0.038756
0.037160
0.018407
0.017468
0.018931
0.011652
0.003307
0.002201
0.003542
0.003463
0.002026
0.003641
0.004278
0.003449
0.001885
0.001218
0.000913
0.000594
0.000575
0.000381
-0.002483
0.002287
0.003098
0.002929
0.003330
0.001338
0.002631
0.010852
0.013284
0.011595
0.020769
0.018454
0.016684
0.000740
0.003651
0.004498
0.007317
0.005115
0.004202
0.006558
0.010262
0.008840
0.008842
0.010299
0.008329
0.008765
0.006413
0.007503
0.006725
0.007644
0.005866
0.004613
0.008544
0.009783
0.008987
0.008245
0.010044
0.007842
0.003761
0.006091
0.003101
0.000557
-0.000299
0.000406
0.003849
0.006854
0.006805
0.006758
0.007579
0.011462
0.011834
0.015232
0.018243
0.025845
0.034255
0.024894
0.016919
0.011729
0.015808
0.007668
0.003524
0.005504
0.003647
0.003900
0.004579
0.004243
0.005306
0.003327
0.004468
0.004388
0.001579
0.001702
0.000992
0.000733
0.000860
0.005994
0.004749
0.001623
0.001282
-0.000537
0.004079
0.006208
0.004579
0.004733
0.005427
0.009013
0.006689
0.006991
0.019018
0.033714
0.002646
0.003443
0.004277
0.003781
0.002199
0.003912
0.008107
0.009691
0.008398
0.010552
0.029849
0.006896
0.010346
0.009506
0.006908
0.010010
0.005759
0.006519
0.008669
0.006025
0.003811
0.002751
0.000460
-0.000060
0.000306
0.001241
0.004246
0.008538
0.007886
0.004589
0.008612
0.005481
0.006663
0.000444
-0.000892
-0.004226
-0.002273
-0.001824
-0.000627
0.000180
0.000470
-0.000173
-0.000066
-0.000345
-0.000591
0.001099
0.001578
0.006716
0.006713
0.006190
0.005916
0.005589
0.001299
0.003146
0.002854
0.002481
0.007151
0.029430
0.017177
0.014322
0.011433
0.012036
0.007245
0.005057
0.004877
0.005230
0.005234
0.004510
0.005528
0.003373
0.003271
0.002562
0.001951
0.002158
0.001132
0.001264
0.005470
0.011793
0.012564
0.014657
0.016222
0.022273
0.004434
0.002845
0.002475
0.002829
0.002906
0.005034
0.005274
0.013636
0.008317
0.009576
0.005386
0.005759
0.003148
0.004079
0.000260
0.000255
0.000448
0.005309
0.004801
0.002419
0.000166
-0.000512
0.003577
0.000566
0.000425
0.000302
0.000819
0.002506
0.002195
0.000214
0.000157
-0.000735
-0.000953
0.002203
0.001804
0.004715
0.007424
0.007687
0.009046
0.008405
0.008117
0.009123
0.006224
0.001228
0.001167
0.007790
0.006772
0.009107
0.007493
0.002654
0.003777
0.001671
0.008384
0.017781
0.019346
0.014278
0.010641
0.006614
0.008172
0.010001
0.009713
0.010415
0.013657
0.012229
0.012975
0.010875
0.010067
0.006620
0.005844
0.005563
0.005619
0.003627
0.001487
0.002707
0.003011
0.002358
0.003830
0.000897
0.012519
0.018760
0.013452
0.014389
0.016385
0.006995
0.006116
0.003731
0.006038
0.005472
0.006973
0.007635
0.007935
0.009016
0.013036
0.011120
0.007888
0.010853
0.013547
0.016028
0.011636
0.011866
0.012061
0.008298
0.003713
0.001399
0.002910
0.004860
0.005552
0.006140
0.006999
0.005975
0.007545
0.010395
0.009190
0.006324
0.005410
0.009490
0.006089
0.005073
0.004231
0.004304
0.003940
0.001146
0.001003
0.000116
0.001624
0.001965
0.001141
0.001081
0.002535
0.002106
0.002033
0.001140
0.000815
0.001876
0.002697
0.000577
0.001610
0.000632
0.001913
0.004948
0.008445
0.009732
0.008647
0.013253
0.008310
0.009211
0.013000
0.011271
0.015475
0.011497
0.007569
0.007408
0.005854
0.004808
0.003717
0.002845
0.003957
0.002787
0.001955
0.003524
0.002344
0.005290
0.005744
0.008671
-0.000407
-0.000567
0.001647
-0.002680
0.019104
0.024718
0.016997
0.018028
0.014481
0.019627
0.013988
0.017674
0.012681
0.013776
0.000774
0.039358
0.000159
-0.004894
-0.003639
0.001872
-0.000211
0.049060
0.048531
0.052775
0.001753
0.001473
-0.000661
0.006056
0.000215
-0.002083
0.014768
0.013601
0.011763
0.013645
0.005480
0.007760
0.010105
0.002309
0.004573
0.005434
0.004263
0.006582
0.002357
0.011988
0.013413
0.006963
0.002581
0.003328
0.005864
0.003560
0.002903
0.004501
0.007339
0.009918
0.008663
0.005427
0.009247
0.008971
0.005358
0.020892
0.000805
-0.007322
0.001180
0.006631
0.004365
0.001696
0.001122
-0.000303
-0.002645
-0.000569
-0.001106
0.002123
0.003520
0.000729
-0.000278
-0.000384
-0.003582
-0.001000
0.000580
-0.000280
0.000451
-0.000315
-0.000670
0.000267
-0.000547
-0.001575
-0.001851
-0.001288
-0.002604
-0.000736
0.004447
0.009140
-0.001277
-0.000008
-0.000277
-0.002123
0.018828
0.013993
0.012514
0.009050
0.007317
0.006400
0.007655
0.004408
0.007808
0.000272
0.000771
0.001639
0.002917
0.000725
0.000791
0.001727
0.000077
0.006417
0.001622
0.000676
0.001017
0.004856
0.000063
-0.002266
-0.003333
-0.003332
-0.002564
0.001816
-0.000246
-0.000916
-0.000052
-0.000227
-0.000960
-0.001931
-0.003573
-0.000053
-0.000103
-0.000354
-0.000022
0.000628
0.000285
0.000744
0.000025
-0.000338
0.002442
0.003579
0.002684
0.001782
0.000921
0.000269
0.000624
0.001150
0.000842
0.002426
-0.000827
-0.000958
-0.001194
-0.004459
-0.000482
-0.001371
-0.002429
-0.002737
0.000667
-0.001504
-0.000848
-0.000339
0.000511
0.001624
0.003297
0.005446
0.022984
0.010642
0.022298
0.005724
0.017043
0.003735
0.021586
0.007161
0.025004
0.004893
0.029813
0.035091
0.005498
0.040147
0.008686
0.034021
0.011895
0.030370
0.008219
0.028380
0.005547
0.031952
0.008871
0.032322
0.009717
0.033948
0.009512
0.031929
0.007487
0.028915
0.006734
0.024174
0.007836
0.039602
0.004854
0.034956
0.007769
0.037463
0.010419
0.036005
0.007282
0.033525
0.009043
0.040266
0.018983
0.037512
0.011020
0.033575
0.013334
0.008720
0.009875
0.012516
0.010325
0.012414
0.005139
0.001370
0.000026
-0.000748
0.000086
0.000827
0.001467
0.006061
0.011484
0.001793
0.004185
0.001186
-0.000659
-0.001557
-0.000375
-0.001468
0.001164
0.000423
-0.000010
-0.000328
-0.002975
-0.001816
-0.000954
-0.003348
-0.000346
-0.000306
-0.002272
-0.001381
-0.002301
-0.007959
-0.001967
-0.004351
-0.001086
0.001016
0.011449
0.001149
0.004216
-0.004063
-0.001175
0.000633
-0.002950
-0.007135
-0.009480
0.001965
0.004214
0.000460
-0.000145
-0.002977
-0.012898
-0.000595
-0.002511
-0.004009
-0.000698
-0.001329
-0.000542
0.000349
0.000597
0.001097
0.009512
0.001098
0.005471
0.003478
0.001326
0.000726
-0.000539
0.000308
0.002770
-0.001309
-0.001738
-0.000452
-0.000997
-0.002393
-0.001509
-0.002709
-0.003946
-0.001937
-0.003224
-0.003179
-0.001574
-0.002467
-0.000023
0.000524
0.000933
0.002897
-0.006517
-0.003573
0.063616
0.012483
0.007404
-0.000413
0.008960
0.007447
0.007553
0.005232
0.007944
0.006935
0.007562
0.014717
0.012440
0.016806
0.014389
0.015626
0.016750
0.011824
0.016201
0.011843
0.013413
0.012198
0.017654
0.010589
0.015559
0.013632
0.015726
0.013891
0.015109
0.013233
0.012531
0.010181
0.010068
0.013020
0.013901
0.011843
0.017562
0.012250
0.021026
0.010435
0.023841
0.012073
0.017535
0.013993
0.014055
0.011257
0.017332
0.010621
0.015767
0.014685
0.010931
0.009991
0.007050
0.006409
0.006450
0.008134
0.008478
0.003736
0.001506
0.001594
0.001961
0.001898
0.001833
0.000509
0.002378
0.000280
-0.000130
-0.000577
0.001482
0.002590
0.002505
0.002904
0.005826
0.003842
0.001927
0.000439
0.000682
0.001968
0.003384
0.006871
0.002380
-0.000602
0.000218
0.001848
-0.000315
-0.008139
-0.002802
-0.001130
0.001002
0.003202
0.003759
0.020419
0.012917
0.046913
0.019272
0.005000
0.020126
-0.001034
-0.000589
0.007937
0.001158
0.027166
0.000443
-0.001469
-0.005747
-0.006014
-0.001845
0.014470
0.001017
-0.001094
-0.000547
0.001695
-0.000059
-0.003640
-0.008732
-0.002416
-0.005644
-0.002526
-0.000007
0.001178
0.002152
0.004170
0.005462
0.002435
0.002451
-0.000356
0.000935
-0.000305
-0.000893
-0.000322
-0.000459
-0.000251
-0.001301
-0.000387
-0.000594
-0.004686
-0.002435
-0.002191
0.000642
0.000543
0.000249
0.000598
0.000677
0.000628
0.006962
0.002987
0.007954
0.006408
0.002678
0.006962
0.006683
0.010389
0.009360
0.010408
0.005114
0.013364
0.009230
0.003878
0.001617
0.000467
-0.000698
0.000058
-0.000030
0.001586
0.001035
0.000480
-0.000170
-0.000241
0.014953
0.008467
0.007409
0.004751
0.006345
0.005549
0.008197
0.013461
0.015223
0.017813
0.012688
0.006509
0.024564
0.005535
0.001019
-0.000941
-0.001706
0.024920
0.006251
0.004767
0.004267
0.003915
0.005348
0.008978
0.007822
0.008438
0.015075
0.008537
0.010460
0.008153
0.008325
0.011816
0.011102
0.011552
0.011721
0.011607
0.013020
0.011566
0.012574
0.011504
0.012649
0.010568
0.011191
0.008636
0.010795
0.008034
0.010372
0.011322
0.011895
0.011916
0.009958
0.010538
0.011874
0.012795
0.007746
0.014052
0.010388
0.011019
0.012703
0.012084
0.000855
0.007807
0.007774
0.002763
-0.000895
0.000543
0.001411
0.002269
0.003224
0.006052
0.010585
0.028344
0.022117
0.017115
0.018530
0.019930
0.004128
-0.000181
0.001506
0.000858
0.022542
0.048723
0.002465
0.000261
-0.001621
-0.004384
-0.005252
-0.000353
0.005107
0.009098
0.020135
0.048584
0.075377
0.006870
-0.002318
-0.000911
-0.002609
-0.008556
-0.008141
-0.001021
-0.000287
-0.000408
0.000661
0.002931
0.005447
0.005589
0.002761
0.005223
0.002926
-0.000138
-0.000480
0.000768
0.000105
0.000178
-0.000144
0.000435
0.002456
0.010374
0.005860
0.017027
-0.000340
0.001070
0.001164
0.000597
0.000676
0.002262
0.003106
0.002363
0.003096
0.002343
0.002207
0.003327
0.003604
0.004640
0.005090
0.003094
0.001053
0.010844
0.007807
0.005860
0.007344
0.007137
0.011246
0.009332
0.009146
0.013158
0.007714
0.016359
0.005125
0.003747
0.003796
0.002406
0.007795
0.006324
0.004080
0.002344
0.001952
0.002062
0.003317
0.004620
0.002216
0.000775
0.001158
0.000722
0.000919
0.003398
0.003484
0.003200
0.004080
0.005175
0.006178
0.007979
0.006294
0.007779
0.006554
0.010412
0.007819
0.007909
0.009102
0.011914
0.008130
0.011104
0.008573
0.010011
0.012798
0.011661
0.011983
0.013198
0.008651
0.011055
0.006826
0.009596
0.007370
0.007465
0.008186
0.009539
0.010553
0.009852
0.008043
0.005698
0.011456
0.010060
0.009159
0.011675
0.009452
0.002108
0.003791
0.001746
0.001165
0.001559
0.000869
0.001750
0.002799
0.006128
0.013643
0.014611
0.014647
0.016174
0.010290
0.011647
0.014608
0.019709
0.006318
0.009414
-0.000166
0.039579
0.010369
0.019188
0.003538
0.000152
-0.001381
-0.004146
0.009004
0.007384
0.022215
0.011372
0.002157
0.003497
-0.000072
0.023912
0.035773
0.029199
0.026002
0.008302
0.002150
0.000179
-0.002002
-0.003521
0.000097
0.003003
0.005614
0.010292
0.017903
0.023766
0.019841
0.006255
0.002422
-0.000130
-0.002364
-0.004189
-0.002167
-0.000111
0.000062
0.000167
0.000961
0.002761
0.006461
0.001771
0.004931
0.002004
0.000008
-0.001314
-0.000581
0.000694
0.000747
0.000239
0.000713
0.001378
0.002663
0.006690
0.006918
0.007740
0.002827
-0.000525
0.000739
-0.000940
-0.000240
0.000980
0.000861
0.000397
0.001165
0.001383
0.001916
0.000924
0.001503
0.001775
0.002051
0.002566
0.003092
0.008209
0.008206
0.006631
0.007804
0.007146
0.009446
0.010889
0.006412
0.011384
0.004058
0.006999
0.003435
0.003105
0.003335
0.003346
0.002471
0.002286
0.002047
0.000837
0.000751
0.000331
0.000685
0.001421
0.001589
0.001160
0.001160
0.001394
0.002005
0.002306
0.001642
0.002162
0.003573
0.003050
0.003078
0.003648
0.003604
0.004860
0.007639
0.006447
0.006606
0.008061
0.007349
0.009833
0.007502
0.010364
0.011363
0.012974
0.019260
0.020683
0.015195
0.013124
0.008482
0.008812
0.006950
0.007838
0.007989
0.006308
0.007254
0.007793
0.008689
0.004360
0.005233
0.007481
0.006309
0.008736
0.006393
0.001234
0.001362
0.001463
0.001857
0.000778
0.002435
0.004869
0.001581
0.002092
0.002051
0.000371
-0.001157
-0.000926
-0.000823
-0.000224
0.001159
0.001231
0.000816
0.001361
0.002212
0.002729
0.002372
0.002445
0.001224
0.000119
0.000739
-0.000302
-0.001602
-0.000859
-0.000550
0.001300
0.007001
0.003802
0.004585
0.006665
0.005644
0.001223
-0.000384
0.011970
0.001448
0.009212
0.023599
0.007039
0.003776
0.002340
0.000873
-0.001059
-0.002621
0.000118
0.000634
0.003613
0.005540
0.004230
0.003252
0.000929
0.001454
0.003124
-0.003718
-0.006252
0.000824
0.000941
0.000919
0.001041
0.001790
0.000799
0.001322
0.001409
0.007349
0.007597
0.005585
0.008554
0.007971
0.006131
0.006875
0.004483
0.006230
0.003325
0.003211
0.002612
0.001940
0.001687
0.001374
0.001010
0.001037
0.000640
0.000314
0.000809
-0.000102
-0.000727
-0.001010
-0.000619
0.000145
0.001703
0.001639
0.001884
0.002876
0.001959
0.000661
0.001906
0.002962
0.003362
0.004728
0.006111
0.006361
0.006940
0.007313
0.008103
0.012390
0.016317
0.018674
0.007639
0.006051
0.017526
0.013836
0.012034
0.007674
0.008336
0.006455
0.007165
0.007037
0.004339
0.007147
0.005062
0.003894
0.005191
0.005057
0.005766
0.008436
0.000978
0.002282
0.005424
0.000545
0.006743
0.005900
0.004807
0.004835
0.005429
0.003751
0.003712
0.003209
0.002797
0.002523
0.001998
0.001626
0.001231
0.001092
0.000743
0.000748
0.000431
0.000987
0.000634
0.001240
-0.000075
0.000315
0.000322
0.000420
0.000609
0.000716
0.001055
0.001276
0.001262
0.001152
0.000848
0.000383
0.000068
-0.000505
-0.000804
0.000104
0.000180
0.000034
-0.001143
0.000564
0.001462
0.000848
0.000852
0.000632
0.000152
-0.000201
-0.000264
0.000554
-0.003263
-0.005279
-0.003233
-0.004196
-0.002506
0.001030
0.007472
0.002396
0.000896
-0.000084
-0.000207
0.001279
0.011663
0.016109
0.006558
0.002658
0.002179
0.000037
-0.000264
-0.001552
0.001349
0.000519
0.002226
0.004256
0.001492
0.000522
-0.000040
-0.000174
0.000133
0.001096
0.001343
-0.000243
0.000517
0.000613
0.002170
0.000498
0.001617
0.002566
0.002343
0.005591
0.004415
0.007543
0.007374
0.007311
0.007650
0.014168
0.021040
0.006688
0.010067
0.008979
0.006700
0.022521
0.015584
0.007567
0.006546
0.007285
0.005874
0.005140
0.005225
0.004362
0.005514
0.003591
0.003596
0.004132
0.004924
0.000783
0.000500
0.000627
0.000639
0.001047
0.001097
0.001725
0.000630
-0.000052
0.000210
0.000150
0.000399
0.000535
0.000803
0.000947
0.001132
0.000939
0.000782
0.000488
-0.000090
-0.000041
-0.000198
-0.000417
-0.000309
-0.000432
-0.000544
0.000452
0.000131
-0.000141
0.001071
0.001078
0.000985
0.001110
0.001691
-0.001358
-0.002675
-0.004411
-0.002172
-0.001482
-0.001099
-0.002434
0.001509
0.000000
0.000279
-0.003352
-0.002610
0.006152
0.001501
0.000874
0.000088
-0.000795
0.000104
-0.001770
0.025164
0.011959
0.005645
0.005254
0.000768
0.001510
-0.000374
0.001923
0.001992
0.002846
0.002349
0.000600
0.000562
-0.003651
-0.001181
-0.000174
-0.000225
0.000648
0.000411
0.004443
0.006721
0.006091
0.007396
0.010121
0.008028
0.024183
0.009013
0.007653
0.006242
0.007525
0.030101
0.004864
0.007772
0.007976
0.007247
0.006403
0.005301
0.002632
0.003002
0.004518
0.004036
0.002927
0.004348
0.005431
0.005085
0.004548
0.003615
0.003768
0.003944
0.003099
0.002967
0.002416
0.001931
0.001588
0.001287
0.001415
0.002994
0.001291
0.001087
0.000557
0.000159
0.001813
0.002861
-0.000098
0.000751
0.000985
0.001016
0.001009
0.000924
0.000513
0.000080
-0.000258
-0.000395
-0.000542
-0.000746
-0.000358
-0.000936
-0.001138
-0.000497
-0.000626
0.000516
0.000306
0.000330
0.000413
-0.000112
0.000167
-0.000469
-0.001035
-0.000682
-0.000413
-0.000526
-0.001696
0.000717
0.001913
0.004818
0.005812
0.007866
0.005775
0.011303
0.010882
0.001914
0.006961
0.006378
0.002659
0.005278
0.007476
0.004521
0.008679
0.007361
0.005961
0.003957
0.003826
0.003585
0.001844
0.002721
0.003026
0.003692
0.002930
0.003832
0.003119
0.001962
0.002605
0.002348
0.002446
0.001260
0.001538
0.001398
0.001572
0.001470
0.001238
0.000809
0.000922
0.000413
-0.001181
-0.000110
-0.000354
-0.000322
-0.001381
-0.000939
-0.001405
-0.000384
0.001123
0.000158
0.000431
0.000926
0.003429
0.002539
0.002652
0.002391
0.001670
0.002332
0.001528
0.001730
0.001473
0.000272
-0.000265
-0.000834
-0.002127
-0.001486
0.000342
0.001981
0.006193
0.013828
-0.001262
-0.000139
0.001788
-0.000459
-0.001313
0.010890
0.074493
0.006309
0.009038
0.003903
0.002964
0.002328
0.001565
0.000551
0.001585
0.001366
0.002359
0.001049
-0.000585
0.000245
-0.000448
-0.000222
-0.000021
0.002126
0.004154
0.005244
0.006552
0.009674
0.011023
0.009260
0.005683
0.002455
0.003666
0.002524
0.000439
0.000508
0.016982
0.007805
0.006312
0.004429
0.003952
0.004041
0.002483
0.003964
0.002669
0.000551
0.001847
0.002301
0.002171
0.000258
-0.000512
-0.001256
-0.000899
-0.000328
0.001358
0.002987
0.003567
0.004293
0.006975
0.012199
0.018528
0.025608
0.015959
0.003954
0.004047
0.004437
0.004735
0.017361
0.008244
0.024048
0.004999
0.004562
0.003473
0.004090
0.002715
0.000285
0.002830
0.002720
0.002411
0.001201
0.002561
0.002209
0.001258
0.001535
0.000793
0.000368
-0.000059
0.000308
-0.000346
0.001882
0.002756
0.002179
0.029559
-0.000742
0.002013
0.001064
0.000971
0.001149
0.000670
0.000482
0.000307
-0.000584
-0.000437
-0.000107
-0.000804
0.000498
0.001023
0.004435
0.041776
0.031986
0.000355
0.014871
0.002551
0.008125
0.003770
0.002873
0.004581
0.001789
0.001590
0.016107
0.001000
0.001941
0.004117
0.001427
0.046130
0.017472
0.027741
0.007610
0.004333
0.003133
0.001819
0.001954
0.001254
0.000903
0.027186
0.007132
0.008569
0.003205
0.003519
0.001579
-0.000213
0.004233
0.003602
0.003150
0.001010
0.000839
-0.000586
0.001983
0.004409
0.002538
0.000353
0.001047
0.001469
0.004225
0.006490
0.007552
0.002013
0.002168
0.002866
-0.000014
0.002422
0.001344
0.002783
-0.000284
0.000040
-0.000414
-0.000148
0.000078
-0.002570
-0.002561
0.002990
-0.001201
-0.000229
0.000496
0.001639
0.000332
0.001010
0.000782
0.001081
0.002622
0.001235
-0.000079
0.000535
0.003036
0.004458
0.000542
-0.000076
0.001374
0.000115
-0.000230
0.000140
-0.000030
SCALARS S22_SP5(MPa) float 1
LOOKUP_TABLE default
0.008827
0.014772
0.000911
-0.000022
0.012600
-0.000511
-0.002062
-0.001706
-0.001643
-0.001204
-0.000973
0.001397
0.002497
0.001292
0.000051
0.000216
-0.001015
-0.002066
-0.000997
-0.001241
-0.000060
0.000542
0.001449
0.000358
-0.000437
-0.000318
0.001595
0.003977
0.000978
0.002563
0.000617
0.000848
-0.001074
0.000075
-0.000024
0.001050
0.004067
0.002906
0.002754
0.003313
0.007177
0.004301
0.001796
0.001072
0.001045
0.006626
0.003355
0.005983
0.002024
0.002331
0.000396
-0.000809
-0.002431
0.003747
0.001253
-0.000123
0.000155
0.000256
-0.000168
-0.000327
-0.005329
0.000144
-0.000237
-0.000459
-0.000999
-0.001624
0.000365
-0.008060
-0.000528
-0.000187
-0.000436
-0.000485
-0.000306
-0.001081
-0.005182
-0.000808
0.000398
-0.000061
0.005914
0.000301
-0.005212
-0.000837
0.001405
0.002475
-0.000234
-0.001282
0.001136
-0.002496
-0.000724
-0.000232
0.001237
0.000830
-0.000225
-0.000505
-0.000710
0.000832
-0.001715
-0.000102
0.000448
0.000343
0.000514
-0.000268
-0.001238
0.000222
0.000090
-0.001904
0.000827
0.002758
0.003965
0.005694
0.003970
0.002751
0.002564
-0.000539
0.000444
0.001445
0.002033
0.001629
0.003037
-0.000077
0.000306
0.001743
0.001211
0.024438
0.007333
0.002511
0.001028
0.000473
0.006869
0.001335
0.001698
-0.000993
0.000030
-0.000261
-0.000455
-0.000460
0.000148
0.000002
0.003136
0.001174
0.000300
-0.000438
-0.000596
-0.000079
-0.000986
-0.000956
-0.000852
-0.002065
-0.001486
-0.000068
0.000272
-0.000022
0.002840
0.007898
0.000340
0.000938
-0.003197
-0.000951
0.001947
-0.001427
0.002100
-0.002536
-0.004620
-0.001336
0.000246
0.002901
0.006148
0.011627
0.000167
-0.000554
-0.000763
-0.002042
-0.002279
-0.000089
0.000950
0.001464
0.003691
0.005084
-0.000666
0.000069
0.000894
0.000164
0.000059
-0.000241
0.002454
0.012142
-0.001505
-0.001149
-0.000264
-0.000146
0.000382
0.002495
0.004402
0.001687
0.002333
0.001802
0.001075
0.000645
0.000678
0.000365
0.000984
0.007280
0.001609
0.000413
-0.000029
-0.001395
-0.000406
0.000815
0.000094
-0.000639
0.002491
0.000031
-0.008482
-0.002464
-0.003442
-0.001006
-0.000452
-0.000137
-0.014993
0.004244
-0.003078
-0.004057
-0.000898
0.000270
-0.000393
-0.000647
-0.000767
-0.000140
-0.000909
0.000436
0.004208
0.009913
0.000528
-0.004902
-0.003906
0.000393
0.003031
-0.001449
-0.000401
-0.005334
-0.000606
-0.000549
-0.000076
0.000904
0.002661
0.000296
-0.002300
-0.001428
-0.002361
-0.000844
-0.001021
-0.002417
0.003214
-0.002281
0.004171
0.000290
-0.000519
0.021214
0.012031
0.008132
0.005841
0.002269
0.001987
0.001980
0.001565
0.001707
0.002857
0.000748
0.000753
0.000699
0.000734
0.006748
0.006287
0.003332
0.003042
0.021997
0.059489
0.013732
0.003533
0.003230
0.003821
0.004002
0.004060
0.000578
0.000930
0.000467
0.000744
0.000508
0.000934
0.000391
0.004058
0.032082
0.007169
0.002796
-0.000089
-0.000056
-0.000405
-0.000859
-0.000475
-0.001169
-0.002023
-0.003680
0.000230
0.000061
0.000739
0.008081
0.018843
0.009206
0.000284
0.000930
-0.002761
-0.000534
0.002159
-0.003077
-0.000734
-0.000134
0.001389
0.003948
0.007817
0.004556
-0.000114
-0.000898
-0.001084
-0.001896
-0.001366
0.000288
0.001422
0.001933
0.002755
0.003985
-0.000550
-0.000088
0.000797
0.000717
0.001121
0.000303
0.000071
0.000894
0.002528
0.000167
-0.000607
-0.000028
0.000209
0.002497
0.014833
0.000649
-0.000929
0.000570
0.000890
0.000555
0.000318
0.008568
0.005445
0.001434
0.001961
-0.000324
-0.007865
-0.003578
-0.000978
0.000386
0.001017
0.000546
0.001167
0.007516
-0.002286
-0.011184
-0.002016
-0.001698
-0.001238
-0.000891
-0.004547
-0.001855
0.001941
0.003441
0.000811
-0.006094
-0.006515
-0.004804
0.004486
0.003099
0.000177
-0.001545
-0.001932
0.003364
0.031293
0.000749
-0.001605
-0.000280
0.001333
0.003144
0.001576
-0.000676
-0.000399
-0.001111
0.000008
0.002909
-0.002783
0.000091
0.001312
-0.000080
0.001327
-0.000228
0.013200
0.013782
0.009150
0.007454
0.005664
0.003528
0.002753
0.001577
0.001614
0.002375
0.002284
0.000517
0.000578
0.003773
0.003041
0.018174
0.051089
0.060649
0.093208
0.033419
0.030754
0.006096
0.008873
0.006032
0.005204
0.001449
0.000486
0.000965
-0.000610
-0.001719
0.009679
0.059881
0.063323
0.141090
0.017357
0.009396
0.002056
-0.000001
-0.000069
-0.000662
-0.000975
0.000083
-0.000128
-0.000550
-0.002264
0.029683
0.018066
0.029967
0.066425
0.015928
0.017246
0.007653
0.005468
0.000957
-0.000605
-0.000102
-0.000507
-0.000470
-0.000134
-0.000143
0.000200
-0.000249
0.000400
0.000543
0.000497
0.000570
0.000267
-0.000642
0.000568
0.001727
0.000430
-0.000089
-0.000217
-0.002619
-0.004074
-0.000205
-0.000677
0.000296
0.002821
0.005188
0.001163
0.033706
0.001872
-0.004785
0.003833
0.033191
0.012982
0.010570
0.007162
0.012643
0.010151
0.009386
0.009030
0.007236
0.004838
0.005317
0.005098
0.005187
0.003929
0.005945
0.005397
0.008638
0.014140
0.050208
0.027621
0.013674
0.022609
0.018742
0.025127
0.031444
0.016258
0.037602
0.019254
0.027380
0.041505
0.019511
0.022820
0.033573
0.017181
0.017833
0.020980
0.017042
0.034319
0.004763
0.024947
0.019035
0.010330
0.035584
0.012579
0.012937
0.004864
0.011488
0.011893
0.006535
0.011003
0.016690
0.007381
0.017012
0.017935
0.011691
0.020117
0.019953
0.026298
0.029014
0.021833
0.038597
0.042332
0.055369
0.032682
0.057553
0.042120
0.053336
0.045824
0.064761
0.051355
0.057337
0.072394
0.065992
0.060697
0.075526
0.043886
0.057709
0.066785
0.043750
0.057918
0.033515
0.041853
0.039475
0.019918
0.029522
0.031857
0.024040
0.024813
0.013607
0.014632
0.028324
0.027463
0.042594
0.031159
0.031380
0.034267
0.039861
0.033735
0.063092
0.050253
0.036288
0.071614
0.053972
0.062437
0.066838
0.077672
0.058230
0.063349
0.073179
0.048909
0.070311
0.067047
0.054305
0.042754
0.063120
0.050807
0.038744
0.051816
0.047469
0.028493
0.032037
0.041954
0.020439
0.026549
0.015668
0.018077
0.017361
0.018601
0.006024
0.005374
0.006916
0.004497
0.003162
0.002646
0.001123
0.001060
-0.003091
-0.000537
-0.000188
0.000218
0.000202
0.000782
0.001064
0.001249
0.002136
0.005783
0.001564
0.003993
0.002112
0.000561
0.000224
0.000071
0.000248
0.001296
0.005551
0.002912
0.007826
0.017593
0.008688
0.015047
0.004182
0.001164
-0.001146
-0.000656
-0.000336
-0.000579
-0.000924
-0.001022
0.000598
0.001669
0.000033
-0.000051
-0.000114
-0.000469
-0.000703
0.014095
0.024474
0.013469
0.015444
0.014543
0.011811
0.012306
0.009806
0.008071
0.005197
0.004603
0.004603
0.004592
0.005246
0.004624
0.009541
-0.000753
0.001954
0.001698
0.001800
0.000764
-0.000155
-0.001345
0.025417
0.005363
0.008488
-0.003263
0.000786
0.006214
-0.004900
0.000613
0.024934
0.059649
0.000798
0.000038
0.019528
0.030431
0.012479
0.019480
0.016388
0.019073
0.018042
0.019410
0.026865
0.022192
0.028211
0.032076
0.020074
0.021306
0.019571
0.017419
0.024007
0.018933
0.013012
0.015481
0.011579
0.009694
0.021967
0.008445
0.018303
0.023083
0.007662
0.005830
0.005210
0.004527
0.003261
0.005108
0.005645
0.015639
0.006148
0.006966
0.018041
0.027341
0.014458
0.020016
0.030104
0.024687
0.022565
0.049718
0.042392
0.061303
0.029323
0.037887
0.052963
0.052298
0.048586
0.057502
0.063802
0.055710
0.069412
0.050385
0.063095
0.061681
0.051439
0.052356
0.058480
0.051333
0.034906
0.033753
0.038796
0.016359
0.029589
0.014737
0.018484
0.007535
0.006671
0.015847
0.020193
0.010288
0.047085
0.025735
0.022346
0.030123
0.035679
0.030614
0.063447
0.037770
0.034266
0.061089
0.047643
0.052933
0.081269
0.064546
0.067951
0.053149
0.073871
0.062640
0.048381
0.084089
0.054061
0.043632
0.055843
0.038683
0.054899
0.053986
0.043789
0.028228
0.034128
0.027874
0.025195
0.020872
0.012314
0.016058
0.019959
0.005889
0.006886
0.010434
0.001926
0.000891
-0.000721
-0.000164
-0.000043
-0.005814
-0.000187
-0.002532
-0.000303
-0.000716
-0.000867
-0.000524
-0.000183
0.000891
0.001619
0.001670
0.000600
0.000408
0.000486
0.000137
0.005538
0.007053
0.011254
0.002693
0.010652
0.005519
-0.000541
0.012906
0.005323
0.003275
0.001694
0.000249
-0.000303
0.006957
0.017164
0.009397
0.007877
0.088887
0.049794
0.002628
0.001904
0.000673
0.000687
0.000738
0.000008
-0.000850
-0.001335
-0.000385
0.000433
-0.000713
0.004032
0.002718
-0.000443
0.010342
0.022643
0.021922
0.014882
0.014651
0.011775
0.016948
0.017453
0.024261
0.023276
0.025991
0.026516
0.020942
0.018071
0.019531
0.019773
0.016854
0.017634
0.012649
0.012734
0.008686
0.009240
0.014649
0.005275
0.007620
0.017515
0.005973
0.002729
0.002223
0.002288
0.002046
0.001707
0.002202
0.001819
0.008109
0.015952
0.009295
0.013963
0.015982
0.010555
0.024151
0.019983
0.049800
0.032305
0.036371
0.032503
0.044240
0.033450
0.057913
0.041400
0.060895
0.051651
0.047601
0.060933
0.063735
0.048435
0.069496
0.045047
0.055799
0.047370
0.043641
0.053954
0.033494
0.022121
0.022199
0.025451
0.012261
0.013322
0.005460
0.007703
0.005200
0.005396
0.009007
0.007553
0.041351
0.023992
0.017681
0.035238
0.030469
0.031422
0.044431
0.026083
0.045554
0.048697
0.057382
0.043474
0.064578
0.071002
0.066226
0.052888
0.051707
0.059091
0.049881
0.053998
0.066714
0.038314
0.032383
0.062890
0.040737
0.030941
0.063680
0.027959
0.031910
0.030979
0.014214
0.019618
0.021788
0.009501
0.015042
0.009368
0.008243
0.005978
0.004867
0.000318
-0.004290
-0.008542
-0.008149
-0.009197
0.001367
-0.004661
0.000053
-0.001636
-0.000831
-0.000221
0.000229
0.001326
0.001602
0.000415
-0.000248
0.000306
0.001671
0.012086
0.007482
0.006118
0.012376
0.002333
0.036388
0.035171
0.029083
0.023692
0.020317
0.018417
0.015628
0.012273
0.009547
0.007722
0.007527
0.007940
0.008758
0.000162
0.000406
0.001050
-0.001948
0.032454
0.013353
0.001006
0.005758
0.002770
0.010332
-0.001004
0.009742
0.003274
-0.000013
0.000639
-0.001499
0.000366
0.002105
0.003183
0.010185
0.026469
0.132164
0.003982
-0.000138
-0.001059
-0.003142
-0.001167
0.000679
0.001855
0.003730
0.009602
0.037397
0.002220
0.001969
0.002687
0.002460
0.003749
0.000670
0.002761
0.004666
0.027813
0.001205
0.000302
0.001664
0.003488
0.012537
0.034023
0.073792
0.115273
-0.002395
-0.006285
0.000109
0.000882
0.002630
0.000376
0.001612
0.000712
0.005991
-0.000167
0.001540
0.004836
-0.000101
0.002946
-0.000978
-0.000364
0.001059
0.011332
-0.000123
-0.020358
-0.000022
-0.017638
-0.006963
-0.002852
-0.000297
-0.002615
-0.004741
-0.001290
-0.001356
-0.000428
-0.003721
0.023347
0.082443
0.021239
0.022805
0.041513
0.026653
0.005418
0.001719
0.000705
0.003269
0.011493
0.160092
0.051135
0.098437
0.001570
0.005669
0.010010
0.001927
0.001627
0.000676
0.001258
0.000917
0.001703
0.003819
0.007951
0.026728
0.050831
0.055767
0.017425
0.013831
0.000403
-0.000023
-0.000709
-0.000473
0.000490
-0.002496
0.000482
0.000029
0.000547
0.002779
0.011749
0.009728
0.009501
0.010158
0.008097
0.004411
0.002545
0.001549
0.001612
0.002170
0.001359
0.000827
0.001130
0.002162
0.005138
0.030691
0.024667
0.057418
0.055542
0.044185
0.021069
0.017743
0.006522
0.006754
0.004696
0.001832
0.000580
0.000973
0.000296
0.000286
0.010867
0.044209
0.058039
0.078061
0.063089
0.017336
0.005929
0.000424
-0.000677
-0.001878
-0.000316
-0.000253
0.000298
0.000037
0.000285
0.016932
0.021330
0.020797
0.042528
0.019045
0.013347
0.006967
0.001085
0.000161
0.000464
0.002162
0.000890
0.028117
0.001351
0.001915
0.001479
0.002317
0.002119
-0.002289
0.013879
-0.006463
-0.002297
0.001458
-0.000769
-0.000206
0.004423
0.006547
0.019112
0.054790
0.042545
0.065486
0.018537
0.006947
-0.000664
-0.000219
0.001103
0.003313
0.007513
0.018702
0.017417
0.002577
0.002817
0.003675
0.003953
0.004203
0.007477
0.007634
0.033835
0.010012
0.007218
0.015053
0.031175
0.064890
0.097039
0.109327
0.133396
0.031878
0.023955
0.003875
0.003056
0.022476
0.015605
0.009224
0.000523
0.004717
0.015077
0.007551
0.001166
0.000181
0.000558
0.001228
0.004260
0.020588
0.036012
0.009779
0.005990
-0.001558
-0.002198
-0.001482
-0.005438
-0.002458
-0.001851
-0.001005
0.011994
0.031068
0.061287
0.035024
0.012816
0.035611
0.029938
0.028855
0.003743
0.001502
0.000565
0.004495
0.022909
0.115947
0.111101
0.053152
0.070309
0.044333
0.023148
0.047394
0.022711
0.007091
0.003016
0.001779
0.001864
0.003137
0.002677
0.002433
0.004409
0.009534
0.013870
0.031716
0.036954
0.033538
0.038400
0.078726
0.237958
0.016832
0.001071
0.001656
-0.000332
0.000166
-0.000426
0.012837
0.003821
0.004075
0.001449
0.001107
0.000996
0.000925
0.000360
-0.000937
-0.001370
-0.001524
-0.000917
-0.000112
0.000962
0.001518
0.004709
0.016469
0.021479
0.034322
0.010083
0.004792
0.003432
0.000677
0.000577
0.002996
0.004670
0.007347
0.009135
0.042139
0.048966
0.016945
0.017169
0.015104
0.010280
0.011865
0.016816
0.020312
0.027240
0.025385
0.026935
0.023173
0.020376
0.019983
0.017712
0.020624
0.013864
0.012867
0.013660
0.011065
0.012182
0.008441
0.004865
0.006495
0.011392
0.002760
0.001997
0.001495
0.001088
0.000801
0.000991
0.001369
0.002094
0.003692
0.007867
0.011907
0.008370
0.010882
0.017163
0.016328
0.016366
0.047133
0.029082
0.038309
0.030692
0.039352
0.038824
0.056371
0.041834
0.063309
0.055186
0.054326
0.043710
0.060404
0.069195
0.049810
0.051176
0.046821
0.062277
0.040863
0.038644
0.035834
0.026270
0.019916
0.016683
0.010651
0.011664
0.004597
0.004844
0.002571
0.004722
0.007055
0.008799
0.021329
0.033099
0.017475
0.020742
0.031387
0.037183
0.038452
0.035077
0.032086
0.045222
0.063197
0.034103
0.071622
0.067555
0.050574
0.044670
0.071535
0.043266
0.055267
0.065149
0.043951
0.042110
0.026699
0.042467
0.038562
0.082746
0.030750
0.062293
0.023844
0.024699
0.016422
0.017651
0.016191
0.012999
0.008219
0.005589
0.007205
0.007126
0.002396
-0.000682
-0.002599
-0.009076
-0.003321
-0.018092
-0.007507
0.000342
0.000228
0.003035
0.031214
0.023554
0.019436
0.021679
0.018914
0.017280
0.016135
0.012769
0.010934
0.010703
0.013282
0.001226
0.002597
0.010007
0.014019
0.009475
0.012248
0.007578
0.004604
0.002864
0.001765
0.001127
0.001432
0.001550
0.001739
0.003470
0.006067
0.014381
0.029796
0.044421
0.045964
0.044702
0.015584
0.014232
0.005293
0.002506
0.001410
0.002973
0.000426
0.002455
0.013619
0.037951
0.038897
0.063824
0.061680
0.032286
0.011459
0.002187
0.009132
0.048446
0.023438
0.006257
0.005098
0.004112
-0.000171
-0.001619
-0.000152
-0.005175
-0.001578
-0.001233
-0.000574
-0.000128
0.001648
0.002629
0.005482
0.021149
0.021902
0.013510
0.007375
0.004879
0.001692
0.000927
0.001454
0.002920
0.003854
0.006438
0.014926
0.044454
0.000642
0.001214
0.001082
0.019646
0.027472
0.007238
0.026949
0.002474
0.003450
0.010351
0.015782
0.008450
0.006379
0.004671
0.003443
0.002008
0.001591
0.001540
0.002001
0.004028
0.007132
0.010447
0.024212
0.035847
0.042748
0.040386
0.019956
0.013553
0.011186
0.004837
0.003649
0.002874
0.007309
0.010085
0.040603
0.046610
0.043206
0.058431
0.042302
0.021108
0.007412
0.003301
0.018542
0.005249
0.001993
0.004020
0.003090
0.031147
0.028087
0.008774
0.018167
0.017487
0.028783
0.042605
0.034263
0.019778
0.013681
0.024621
0.009463
0.010670
0.011929
0.000363
0.030188
0.012241
0.009863
0.002592
0.033195
0.026107
0.021781
0.018476
0.016512
0.014156
0.012382
0.011465
0.014604
0.011703
0.011860
0.012428
0.009926
0.012035
0.015655
0.028569
0.032211
0.026567
0.032902
0.028980
0.023142
0.022132
0.019986
0.019842
0.010676
0.007745
0.017950
0.006536
0.006215
0.005879
0.005185
0.003196
0.001842
0.001206
0.000800
0.000541
0.000804
0.001179
0.001553
0.004853
0.005155
0.013568
0.009442
0.012821
0.020545
0.019618
0.017783
0.043854
0.026325
0.034351
0.030244
0.045059
0.036147
0.055232
0.038444
0.065608
0.048579
0.050183
0.048981
0.064110
0.059507
0.046393
0.052471
0.055006
0.042408
0.031788
0.039351
0.030748
0.024930
0.016535
0.015614
0.015502
0.011220
0.003322
0.001873
0.002210
0.003389
0.006196
0.010489
0.013652
0.035322
0.021865
0.025423
0.021855
0.027041
0.046150
0.033252
0.029436
0.046636
0.051328
0.046597
0.048413
0.067985
0.045564
0.075889
0.045211
0.056445
0.050189
0.052559
0.053696
0.028203
0.033966
0.033141
0.043659
0.046322
0.033013
0.028414
0.046355
0.017791
0.029603
0.013919
0.013559
0.013131
0.010779
0.010406
0.004350
0.004860
0.003126
-0.000041
-0.001895
-0.003006
-0.002816
-0.001232
-0.009797
0.000446
0.016195
0.003130
0.001323
0.027045
0.115114
0.165046
0.007048
0.008542
0.015055
0.033968
0.056798
0.079155
0.056053
0.043224
0.046582
0.013204
0.013525
0.010441
0.002859
0.009523
0.010395
0.009287
0.005567
0.001983
0.001160
0.000212
0.001392
0.001757
0.002843
0.013632
0.005525
0.001171
0.001372
0.000030
-0.004125
-0.006487
-0.001155
-0.001344
-0.000740
0.002548
0.005306
0.002099
0.000787
0.001062
0.001856
0.001851
0.000866
0.000638
0.006312
-0.001341
-0.001727
-0.000333
0.000295
0.006996
0.025491
0.043344
0.023987
0.022848
0.039758
0.017124
0.024632
0.005726
0.004782
0.002371
0.008005
0.029121
0.054930
0.084163
0.083651
0.042636
0.053121
0.027551
0.018378
0.031075
0.040005
0.017470
0.007361
0.006597
0.003376
0.002595
0.003168
0.004019
0.003977
0.003467
0.006175
0.007619
0.016252
0.021318
0.037123
0.024187
0.014700
0.012124
0.014244
-0.001028
0.000270
0.000747
0.003914
0.005266
0.013241
0.016134
0.014771
0.007151
0.017105
0.025996
0.023376
0.017067
0.010905
0.004948
0.003524
0.003597
0.003540
0.002971
0.006235
0.009555
0.011377
0.035190
0.037180
0.044461
0.054266
0.047151
0.027650
0.015353
0.005662
0.011397
0.023109
0.027245
0.024715
0.011077
0.008479
0.005609
0.019235
0.020461
0.016550
0.019732
0.025829
0.027386
0.020220
0.016736
0.020138
0.004464
0.043117
0.011665
0.012042
-0.000484
0.001943
0.008770
0.016857
0.025727
0.012575
0.014191
0.003185
0.000386
0.001963
0.008843
0.025167
0.001528
0.000647
-0.003209
0.040614
-0.005792
0.000479
0.001121
-0.000316
0.006105
0.001610
-0.003395
-0.004324
-0.000845
-0.001234
-0.001219
0.001706
0.004707
0.013832
0.030148
0.039059
0.043135
0.027005
0.012625
0.005947
0.000950
0.000350
0.001434
0.003734
0.011580
0.014091
0.009485
0.003988
0.004858
0.005910
0.008299
0.013123
0.001404
0.001466
0.001742
0.002680
0.004109
0.006205
0.009280
0.015694
0.015038
0.013049
0.012487
0.012606
0.012191
0.011293
0.011024
0.009120
0.008261
0.009401
0.007641
0.010425
0.016691
0.017997
0.027087
0.038672
0.054309
0.021418
0.023240
0.037935
0.036035
0.012403
0.011106
0.008237
0.009639
0.006801
0.006042
0.004631
0.004856
0.003472
0.002229
0.001247
0.000430
0.000929
0.000774
0.001127
0.002613
0.004631
0.006415
0.012355
0.013092
0.014817
0.024616
0.022630
0.021398
0.036090
0.028767
0.037709
0.036227
0.046160
0.036912
0.046050
0.045797
0.060485
0.048187
0.048708
0.042602
0.084028
0.046247
0.043084
0.053066
0.052017
0.040539
0.034947
0.031604
0.027436
0.019894
0.019247
0.016459
0.011855
0.008617
0.004656
0.001837
0.001726
0.003108
0.005623
0.009394
0.016295
0.020727
0.029043
0.026675
0.028855
0.026698
0.031927
0.027304
0.036023
0.052927
0.050918
0.050988
0.063868
0.042522
0.086045
0.051962
0.050447
0.048336
0.057498
0.040512
0.040640
0.036789
0.036886
0.026879
0.042506
0.041399
0.031733
0.027075
0.022746
0.019032
0.013121
0.022291
0.010107
0.011159
0.009124
0.007919
0.005697
0.003103
0.001046
-0.000780
-0.001469
-0.000323
-0.000168
0.000863
0.001386
-0.001761
0.041935
0.024159
0.000918
0.002035
0.002060
0.000131
0.005799
0.013534
0.003985
0.003840
0.006222
0.013046
0.007104
0.006172
0.002443
0.009733
0.001675
0.038452
0.031301
0.022451
0.018003
0.014821
0.005885
0.004731
0.005091
0.006150
0.003004
0.004196
0.006267
0.010429
0.028083
0.033466
0.050760
0.036875
0.043486
0.037486
0.027028
0.021119
0.015211
0.016331
0.028203
0.017545
0.029677
0.021842
0.010637
0.007814
0.018856
0.018174
0.017402
0.020075
0.020877
0.020584
0.025162
0.019617
0.009018
0.013430
0.044082
-0.000875
-0.002779
-0.007950
0.000170
0.007683
0.018214
0.026787
0.031446
0.025739
0.015588
0.011224
0.005471
0.002006
0.001034
0.002303
0.006002
0.008636
0.009703
0.009596
0.007373
0.013813
0.023502
0.046731
0.077535
0.000248
0.000377
0.002159
0.005421
0.007749
0.007009
0.006704
0.004490
0.002201
0.005378
0.002598
0.001939
0.001620
0.002282
0.003126
0.003942
0.006120
0.009477
0.009810
0.009628
0.006063
0.002873
0.007251
0.026668
0.049941
0.048035
0.052987
0.075478
0.041187
0.043995
0.021618
0.020696
0.021578
0.026534
0.026951
0.010866
0.007895
0.011197
0.004192
0.003896
0.003181
0.003314
0.006694
0.005472
0.005579
0.007587
0.015919
0.021534
0.009825
0.011018
0.012029
0.011051
0.009607
0.010645
0.010105
0.010964
0.008104
0.010274
0.019805
0.024689
0.053205
0.029269
0.038250
0.034952
0.021559
0.037615
0.019637
0.009808
0.008658
0.007762
0.006725
0.005177
0.004702
0.004933
0.003558
0.002500
0.001941
0.003847
0.001601
-0.000999
0.005535
0.006403
0.008758
0.010616
0.011268
0.016632
0.019338
0.023736
0.025046
0.045660
0.028095
0.021541
0.030124
0.054138
0.039831
0.036975
0.049131
0.046556
0.055459
0.053910
0.044326
0.040585
0.072924
0.053116
0.037759
0.055135
0.047674
0.047829
0.026574
0.037896
0.026827
0.017371
0.017554
0.016462
0.013790
0.008314
0.004721
0.001707
0.001804
0.003874
0.006828
0.010331
0.013340
0.019700
0.025608
0.032028
0.029114
0.031331
0.020531
0.025479
0.025955
0.040995
0.025158
0.027601
0.031313
0.047868
0.049660
0.056987
0.059460
0.055753
0.065043
0.068157
0.059038
0.037753
0.055757
0.033574
0.045752
0.046658
0.030842
0.032941
0.039562
0.046516
0.027757
0.023206
0.018932
0.015200
0.017952
0.013276
0.020816
0.009280
0.011344
0.007087
0.006727
0.004240
0.004158
0.000706
0.000016
-0.000038
0.000371
0.000151
0.008098
0.038088
0.029256
0.030613
0.025570
0.016522
0.013016
0.006444
0.005908
0.008022
0.006301
0.005196
0.006582
0.006250
0.017743
0.020157
0.053216
0.048540
0.036702
0.040579
0.029279
0.028396
0.032544
0.021390
0.020615
0.022853
0.024271
0.028896
0.019342
0.020254
0.008929
0.006975
0.012396
0.015976
0.016393
0.015810
0.015397
0.017263
0.016915
0.019516
0.019742
0.016750
0.007731
0.017274
0.043494
0.012658
0.002481
0.002734
0.001893
0.003842
0.001407
0.001093
0.007584
0.020330
0.006667
0.002793
-0.001063
0.000255
0.001426
0.001516
0.006118
0.013213
0.014755
0.015804
0.034517
0.060589
0.002414
0.005174
0.006231
0.008454
0.010723
0.006243
0.003987
0.003504
0.002185
0.001728
0.001753
0.002383
0.003650
0.005184
0.015953
0.016012
0.048212
0.030658
0.042574
0.051211
0.014443
0.004727
0.001842
0.001108
0.000843
0.013067
0.016823
0.018887
0.019063
0.016971
0.031307
0.019150
0.099547
0.073131
0.062121
0.026156
0.008470
0.008262
0.014095
0.032977
0.064638
0.058050
0.051341
0.017395
0.029845
0.022474
0.010195
0.024337
0.027105
0.011634
0.009502
0.008334
0.008327
0.001926
0.002671
0.001419
0.003868
0.002756
0.000544
0.003319
0.002041
0.001970
0.002143
0.002451
0.003273
0.004754
0.007018
0.009399
0.006664
0.002904
0.007004
0.022504
0.043216
0.040591
0.048892
0.033528
0.050327
0.090586
0.057561
0.028851
0.023711
0.015982
0.022000
0.029805
0.012382
0.007467
0.010399
0.004930
0.001465
0.001086
0.001570
0.001355
0.001512
0.001390
0.001804
0.001367
0.001031
-0.000316
-0.000048
0.009948
0.010221
0.009467
0.008658
0.009547
0.055559
0.048766
0.038739
0.034230
0.038100
0.047588
0.011468
0.010407
0.009796
0.007156
0.005718
0.005612
0.004488
0.005622
0.004381
0.003031
0.004036
0.010386
0.006218
0.003467
0.013258
0.010955
0.009607
0.010330
0.013355
0.016415
0.017195
0.030787
0.023169
0.038647
0.031997
0.023704
0.035703
0.058697
0.042295
0.031992
0.050720
0.044514
0.055982
0.050989
0.036234
0.050778
0.066189
0.056411
0.036423
0.056993
0.046547
0.036305
0.030769
0.033344
0.022225
0.018209
0.017755
0.018624
0.015235
0.011257
0.007867
0.002005
0.002589
0.005146
0.009253
0.011340
0.015075
0.019146
0.020776
0.034046
0.029978
0.009037
0.008001
0.008993
0.009165
0.008158
0.009709
0.008292
0.030106
0.007610
0.127489
0.011036
0.048764
0.008247
0.015721
0.011124
0.010447
0.008222
0.006908
0.006058
0.004958
0.009036
0.004059
0.003757
0.029096
0.010168
0.001544
0.004448
0.019562
0.016043
0.010526
0.010444
0.013130
0.013556
0.025082
0.023184
0.026700
0.043641
0.032202
0.024951
0.037359
0.053591
0.047729
0.035180
0.053380
0.061460
0.053209
0.046659
0.040885
0.048179
0.064444
0.042261
0.036831
0.063233
0.039537
0.041103
0.031610
0.019293
0.014333
0.018984
0.016942
0.015352
0.012601
0.020176
0.000832
0.001086
0.007834
0.010500
0.010951
0.014518
0.017933
0.022905
0.029129
0.027699
0.027514
0.027385
0.027275
0.096620
0.067511
0.053176
0.051752
0.050533
0.025305
0.007837
0.009625
0.017089
0.042734
0.042244
0.072839
0.056962
0.028582
0.016625
0.020642
0.016804
0.009747
0.007265
0.004116
0.003459
0.006682
0.013549
0.007470
0.003190
0.003673
0.001727
0.001764
0.001785
0.002237
0.001356
0.000700
0.001355
0.029099
0.005978
0.002037
0.003587
0.006189
0.005462
0.003806
0.003332
0.009883
0.012983
0.024623
0.032371
0.031044
0.033417
0.025882
0.015916
0.006249
0.002354
0.001711
0.001135
0.000804
0.000420
0.001355
0.000725
0.002670
-0.001078
0.000369
0.001799
0.003301
0.016667
0.016255
0.023748
0.021566
0.015975
0.012539
0.012118
0.005418
0.001798
0.001249
0.001954
0.005002
0.008564
0.011201
0.013963
0.019082
0.029709
0.038699
0.060957
0.026494
0.015848
0.024052
0.050569
0.028188
0.008074
0.008545
0.011383
0.015012
0.012996
0.010845
0.008881
0.006677
0.007767
0.010114
0.011625
0.015223
0.017166
0.005924
0.000504
0.004099
0.020406
0.015298
0.013362
0.012389
0.012299
0.016647
0.028799
0.018206
0.022200
0.038642
0.025330
0.031013
0.039432
0.046911
0.041644
0.035040
0.057209
0.065104
0.039514
0.040977
0.046744
0.047687
0.066643
0.044356
0.034668
0.052843
0.041709
0.037647
0.031383
0.016262
0.018433
0.019467
0.020763
0.018935
0.015673
0.004117
0.008724
0.005321
0.005240
0.015284
0.016525
0.017773
0.018621
0.024087
0.027634
0.029516
0.026192
0.025595
0.038325
0.032677
0.024144
0.026613
0.029016
0.044695
0.044020
0.050268
0.074633
0.054971
0.051083
0.078057
0.054460
0.042603
0.042329
0.035314
0.045769
0.037161
0.045472
0.026752
0.050959
0.039170
0.032668
0.020789
0.026306
0.011445
0.026262
0.019780
0.012226
0.015434
0.010044
0.008218
0.005580
0.004061
0.004329
0.001767
0.000166
-0.000002
0.000431
0.001401
0.004259
0.006112
0.006679
0.013397
0.015350
0.018934
0.015893
0.015472
0.027815
0.018272
0.010423
0.019766
0.031207
0.036849
0.038518
0.031418
0.049404
0.024539
0.036318
0.042348
0.028280
0.016524
0.011343
0.017747
0.017787
0.005328
0.003184
0.012196
0.007275
0.004202
0.006486
0.003518
0.005064
0.005081
0.005214
0.006643
0.007752
0.016503
0.020521
0.006958
0.003385
0.004089
0.018289
0.012713
0.007205
0.003789
0.004773
0.003385
0.002475
0.001735
0.001711
0.002142
0.003067
0.007734
0.012682
0.022811
0.027922
0.026952
0.030057
0.027238
0.039091
0.041819
0.051644
0.063072
0.060792
0.053826
0.069140
0.069361
0.038826
0.035716
0.037706
0.042758
0.040649
0.050246
0.027707
0.046027
0.046967
0.025905
0.028726
0.019195
0.020696
0.019195
0.015944
0.017492
0.010551
0.013989
0.007850
0.005735
0.004690
0.002916
0.001799
0.001127
0.000238
0.000539
0.061404
0.060431
0.032937
0.047816
0.052984
0.041539
0.026044
0.012448
0.010359
0.022678
0.036711
0.070808
0.043775
0.030114
0.032879
0.017996
0.019761
0.008354
0.004801
0.006533
0.004006
0.004660
0.004540
0.008436
0.007150
0.003797
0.008576
0.012110
0.015159
0.014641
0.015708
0.015008
0.016539
0.018862
0.015598
0.016831
0.017707
0.019804
0.023141
0.049378
0.015072
0.011265
0.013166
0.003668
0.007261
0.016218
0.036026
0.002243
0.001763
0.007114
0.010986
0.016667
0.027017
0.031674
0.023859
0.000428
0.001516
0.002295
0.002264
0.004549
0.002737
0.001653
0.002510
0.001910
0.002023
0.002612
0.003566
0.005003
0.006628
0.006802
0.009201
0.011467
0.002314
0.003821
0.004499
0.007114
0.005523
0.014632
0.013855
0.014662
0.025894
0.017375
0.014254
0.010394
0.010796
0.007577
0.007969
0.017474
0.018224
0.027376
0.026495
0.011778
0.009165
0.008402
0.010126
0.010525
0.012859
0.025033
0.026419
0.024296
0.025666
0.026315
0.027214
0.034320
0.037522
0.021581
0.010346
0.013254
0.015040
0.012947
0.001166
0.002395
0.006870
0.007076
0.007111
0.004986
0.004168
0.003837
0.004467
0.004558
0.005547
0.006473
0.008309
0.019495
0.013875
0.010569
0.014024
0.011992
0.016867
0.013914
0.015809
0.016839
0.015351
0.017875
0.016925
0.012967
0.017289
0.014568
0.018021
0.022407
0.037157
0.018961
0.006796
0.004893
0.008938
0.005162
0.011774
0.000912
0.000391
0.005618
0.003213
0.001924
0.001702
0.002148
0.003054
0.005111
0.012831
0.021811
0.032100
0.026908
0.019896
0.019908
0.015909
0.012125
0.009038
0.009187
0.006977
0.006049
0.009171
0.019474
0.012853
0.024436
0.032089
0.049517
0.055531
0.037389
0.037675
0.040658
0.028627
0.030048
0.025787
0.039415
0.032091
0.035651
0.023587
0.023800
0.016783
0.022333
0.016597
0.017351
0.011925
0.014366
0.010546
0.004135
0.002566
0.002380
0.003196
0.008972
0.012450
0.015286
0.024951
0.039971
0.052879
0.019769
0.007175
0.000915
0.001874
0.002371
0.002828
0.004274
0.007090
0.003492
0.005201
0.010422
0.010368
0.015057
0.018062
0.013815
0.014953
0.007466
0.004189
0.002602
0.001898
0.001899
0.002483
0.005005
0.011200
0.017184
0.023551
0.029688
0.019462
0.015706
0.016709
0.017859
0.012612
0.009697
0.011278
0.011788
0.008625
0.010394
0.015168
0.010802
0.026990
0.019875
0.042231
0.045234
0.039741
0.031678
0.032988
0.026955
0.023847
0.024552
0.027710
0.059217
0.024607
0.029561
0.025150
0.013602
0.021832
0.007269
0.003145
0.002028
0.001803
0.001445
0.001159
0.001366
0.001396
0.051019
0.045273
0.028588
0.035930
0.040777
0.042374
0.020429
0.014642
0.011503
0.029481
0.036039
0.043712
0.054768
0.025272
0.015262
0.012828
0.009988
0.007220
0.005044
0.004497
0.004161
0.003464
0.003557
0.005135
0.004481
0.002039
0.010314
0.008850
0.008699
0.008657
0.008893
0.009598
0.016130
0.021282
0.021438
0.019360
0.022987
0.022292
0.042917
0.010736
0.048281
0.022721
0.012502
0.011458
0.014259
0.003539
0.000822
0.002197
0.003770
0.004054
0.006125
0.004816
0.004444
0.005302
0.003450
0.004243
0.004611
0.005594
0.005418
0.006746
0.008107
0.009427
0.032330
0.030040
0.029459
0.031581
0.030285
0.042016
0.044415
0.061330
0.048763
0.062766
0.071974
0.040629
0.036547
0.029021
0.049955
0.051750
0.052132
0.031741
0.057033
0.033825
0.033421
0.026614
0.021981
0.023485
0.018557
0.015503
0.014475
0.011073
0.013543
0.009657
0.006887
0.005471
0.002472
0.001891
0.001342
0.000210
0.000535
0.009277
0.013699
0.021566
0.025519
0.026582
0.025406
0.017221
0.026238
-0.000552
0.000941
0.001745
0.001312
0.001244
0.001707
0.002408
0.003237
0.004222
0.006426
0.015478
0.016841
0.002650
0.005415
0.007349
0.012924
0.018567
0.006226
0.006205
0.007238
0.010157
0.017038
0.022137
0.026129
0.025530
0.023295
0.016347
0.003870
0.002396
0.001555
0.001355
0.001774
0.001955
0.001597
0.005777
0.008393
0.016833
0.013077
0.019053
0.018136
0.017403
0.010627
0.012710
0.015215
0.007695
0.005279
0.003373
0.002658
0.004534
0.010630
0.011897
0.010492
0.011360
0.016886
0.016196
0.029656
0.042100
0.045869
0.001775
0.002429
0.001675
0.002157
0.001546
0.000865
0.014667
0.009662
0.021535
0.019361
0.028031
0.027376
0.001950
0.000786
0.002497
0.011514
0.014054
0.009648
0.013580
0.012464
0.012854
0.020882
0.019547
0.023022
0.025417
0.028300
0.024125
0.044874
0.037343
0.053298
0.038662
0.045782
0.054785
0.068812
0.029415
0.040987
0.046473
0.053696
0.053485
0.044455
0.029122
0.056955
0.039656
0.040769
0.022176
0.019475
0.013861
0.010398
0.008729
0.009002
0.008541
0.008605
0.008815
0.009216
0.016799
0.016921
0.020109
0.018433
0.015472
0.020460
0.026170
0.037449
0.033652
0.019722
0.016138
0.017920
0.021506
0.033079
0.004811
0.048310
0.003396
0.002986
0.006699
0.002631
0.004445
0.004767
0.003250
0.003890
0.003678
0.003720
0.004659
0.005977
0.006426
0.006732
0.006508
0.007758
0.001692
0.011827
0.017594
0.020654
0.022411
0.023161
0.020670
0.015933
0.001404
0.001153
0.001510
0.001517
0.003281
0.002469
0.002091
0.008099
0.003681
0.008688
0.015058
0.019238
0.020828
0.020097
0.020996
0.018593
0.014693
0.021519
0.019636
0.019012
0.020497
0.013996
0.013677
0.014168
0.016162
0.008580
0.061383
0.002867
0.031649
0.004086
0.005951
0.063654
0.056897
0.002498
0.002743
0.004584
0.004529
0.003922
0.003040
0.004137
0.007505
0.013917
0.013257
0.026439
0.036040
0.030673
0.033179
0.041676
0.046396
0.031124
0.013951
0.021043
0.034967
0.036656
0.043778
0.043680
0.030402
0.018506
0.016132
0.011371
0.007859
0.006454
0.004647
0.004940
0.003473
0.003043
0.003028
0.002560
0.030990
0.030168
0.034398
0.028984
0.031676
0.045151
0.041997
0.053972
0.048554
0.044742
0.059112
0.051762
0.055481
0.057905
0.085388
0.040328
0.029979
0.026051
0.045151
0.046567
0.053752
0.039978
0.030822
0.038119
0.042808
0.026066
0.029065
0.017055
0.017099
0.018793
0.012802
0.011555
0.014460
0.013715
0.010660
0.015916
0.014311
0.013650
0.015072
0.010378
0.013488
0.013411
0.008243
0.005715
0.003091
0.004343
0.031901
0.032120
0.036056
0.018474
0.017030
0.019978
0.017966
0.015220
0.011981
0.014350
0.006017
0.005926
0.003119
0.007848
0.020275
0.018968
0.028658
0.030530
0.027191
0.033034
0.031420
0.031016
0.027740
0.029871
0.038683
0.049341
0.056139
0.021396
0.021663
0.003614
0.003761
0.002460
0.002206
0.004652
0.003358
0.002487
0.002272
0.002685
0.004398
0.007440
0.021664
0.019842
0.021330
0.023067
0.023730
0.015014
0.021114
0.023335
0.010637
0.011285
0.013268
0.010234
0.025861
0.035949
0.029985
0.048927
0.039388
0.036445
0.034083
0.023182
0.036802
0.024437
0.041987
0.036664
0.031989
0.030796
0.020147
0.050850
0.044033
0.061792
0.063085
0.051756
0.055628
0.063505
0.063604
0.040661
0.037360
0.021991
0.049518
0.033784
0.063299
0.041470
0.026165
0.057153
0.028895
0.034314
0.014803
0.016802
0.014516
0.014882
0.013495
0.015115
0.016950
0.001709
0.010154
0.010311
0.008599
0.014864
0.010024
0.008866
0.008591
0.011759
0.011034
0.016684
0.015251
0.028805
0.018390
0.017055
0.015004
0.017583
0.026954
0.041752
0.037734
0.040193
0.011666
0.016872
0.019159
0.008947
0.051991
0.087689
0.017271
0.018288
0.004437
0.003303
0.005720
0.002742
0.025708
0.012542
0.008146
0.014423
0.013418
0.013237
0.012043
0.019533
0.021426
0.018419
0.033553
0.022515
0.028536
0.045246
0.030418
0.055603
0.039769
0.042184
0.057668
0.050847
0.030328
0.046563
0.049742
0.046613
0.055787
0.043258
0.031134
0.041076
0.050380
0.043752
0.023033
0.027885
0.008280
0.009360
0.012840
0.013754
0.013675
0.016147
0.019130
0.021149
0.021875
0.032327
0.023700
0.038772
0.041786
0.031125
0.053967
0.031835
0.056101
0.045267
0.043237
0.042308
0.038347
0.044826
0.048051
0.049666
0.036266
0.028210
0.040047
0.045418
0.034549
0.035715
0.023640
0.024532
0.018331
0.021927
0.016158
0.017500
0.020408
0.020090
0.015406
0.011523
0.009322
0.027724
0.008990
0.003183
0.008622
0.020085
0.015496
0.018496
0.022387
0.027248
0.026091
0.029846
0.033472
0.032109
0.026679
0.033400
0.024678
0.026200
0.033446
0.036138
0.042026
0.002429
0.002392
0.003507
0.003354
0.001833
0.003562
0.030167
0.025541
0.030759
0.034861
0.034869
0.034221
0.032742
0.021579
0.016289
0.026204
0.049708
0.032341
0.033798
0.038746
0.034038
0.019786
0.022836
0.012805
0.011262
0.008031
0.006810
0.005946
0.005838
0.004498
0.002484
0.015814
0.019044
0.011782
0.013134
0.010768
0.009158
0.006491
0.005688
0.008625
0.015309
0.018421
0.033847
0.026298
0.036242
0.026209
0.025859
0.036276
0.028928
0.031894
0.020736
0.021503
0.025397
0.018672
0.011589
0.011974
0.011335
0.019808
0.003307
0.010960
0.003440
0.004149
0.010345
0.010042
0.010312
0.011079
0.016932
0.012333
0.009651
0.010221
0.008216
0.007845
0.018899
0.010833
0.016072
0.018636
0.017858
0.017353
0.014801
0.015282
0.019648
0.021358
0.028646
0.039798
0.046664
0.057883
0.003416
0.010405
0.010238
0.033849
0.010289
0.024335
0.012640
0.010647
0.002925
0.002795
0.005714
0.003966
0.003521
0.003304
0.004119
0.004740
0.005336
0.005579
0.005594
0.004904
0.004611
0.058260
0.076962
0.003291
0.003394
0.004370
0.007326
0.003739
0.003164
0.002696
0.003326
0.004884
0.007554
0.021255
0.017639
0.015529
0.015595
0.024382
0.012291
0.013893
0.016404
0.020672
0.016286
0.015910
0.010197
0.012137
0.014214
0.023517
0.016838
0.033405
0.031275
0.038908
0.039448
0.033911
0.034895
0.051263
0.024752
0.030333
0.023023
0.034123
0.034561
0.050031
0.024246
0.037464
0.029288
0.038670
0.061152
0.073371
0.052146
0.044551
0.034810
0.025154
0.037723
0.043882
0.042469
0.053207
0.026345
0.032933
0.020792
0.021536
0.026174
0.014573
0.014293
0.010314
0.016143
0.016411
0.021059
0.019563
0.017782
0.017566
0.021557
0.016216
0.013764
0.011555
0.017164
0.039221
0.007599
0.017385
0.003949
0.011068
0.019096
0.016753
0.014472
0.020586
0.024935
0.026014
0.027918
0.033487
0.026727
0.027644
0.028875
0.023042
0.024491
0.034211
0.027786
0.041985
0.058001
0.051774
0.067917
0.050396
0.026309
0.024893
0.047185
0.029672
0.029496
0.032028
0.032753
0.026222
0.022010
0.021384
0.040242
0.033706
0.027971
0.037358
0.030907
0.024723
0.022196
0.015008
0.013315
0.012126
0.010414
0.009618
0.007456
0.004514
0.004799
0.005442
0.006038
0.031813
0.026059
0.021524
0.029371
0.035889
0.034203
0.019712
0.025356
0.021144
0.003916
0.003582
0.003646
0.004008
0.004909
0.010144
0.008002
0.011373
0.015824
0.011387
0.019463
0.013001
0.013326
0.008835
0.015477
0.015364
0.017415
0.016131
0.016539
0.025453
0.020884
0.027103
0.025253
0.026952
0.034344
0.032711
0.042843
0.025397
0.035962
0.026176
0.039921
0.044933
0.037605
0.035253
0.033270
0.060918
0.023375
0.037948
0.037763
0.012297
0.017775
0.011870
0.010078
0.010151
0.012731
0.005688
0.013289
0.019103
0.020510
0.025425
0.035864
0.028534
0.037339
0.026440
0.007108
0.008307
0.009441
0.013614
0.020017
0.016307
0.013401
0.009647
0.009163
0.011185
0.011109
0.008822
0.009799
0.016244
0.017136
0.016255
0.015294
0.015424
0.012069
0.023487
0.020537
0.046712
0.024647
0.063056
0.045603
0.001627
0.007539
0.009267
0.018902
0.010910
0.035903
0.044317
0.035706
0.049735
0.018365
0.015756
0.014393
0.006156
0.003981
0.002685
0.002875
0.003116
0.003129
0.003906
0.003449
0.004147
0.004776
0.005155
0.004660
0.004456
0.029153
0.029854
0.030692
0.029575
0.022396
0.028531
0.017288
0.028616
0.031771
0.034240
0.029897
0.054871
0.045484
0.061325
0.047614
0.050774
0.054988
0.026619
0.035200
0.045652
0.024877
0.062577
0.042408
0.043927
0.046670
0.042963
0.038467
0.040172
0.050183
0.046846
0.051445
0.036446
0.025718
0.040498
0.034822
0.040017
0.027240
0.031431
0.046173
0.037051
0.032323
0.036830
0.034462
0.026883
0.023592
0.030973
0.037218
0.036328
0.029488
0.035780
0.025160
0.021082
0.019057
0.012306
0.012357
0.013781
0.011470
0.012280
0.017451
0.012890
0.011812
0.021613
0.022378
0.032785
0.037069
0.040591
0.058808
0.024955
0.036158
0.028050
0.024776
0.024808
0.003938
0.004167
0.004347
0.006764
0.009908
0.018516
0.015406
0.014987
0.020642
0.022335
0.041479
0.016636
0.007227
0.007905
0.006452
0.004244
0.003363
0.002823
0.003044
0.004173
0.003606
0.003710
0.004061
0.004634
0.005153
0.004757
0.004145
0.054278
0.026906
0.053239
0.044107
0.029829
0.050999
0.032766
0.051488
0.042322
0.042937
0.060119
0.048663
0.046696
0.033185
0.034815
0.038072
0.033469
0.028180
0.025434
0.017562
0.018989
0.017403
0.018220
0.019608
0.015508
0.013539
0.008833
0.021020
0.053833
0.008663
0.008931
0.007797
0.054262
0.057141
0.041115
0.040841
0.026764
0.048761
0.037548
0.033975
0.056087
0.033473
0.028591
0.021519
0.024805
0.028105
0.018817
0.023715
0.027528
0.022698
0.029712
0.035737
0.044856
0.027412
0.031591
0.026312
0.027956
0.016675
0.019033
0.030634
0.031581
0.039472
0.031274
0.057381
0.049148
0.042702
0.049495
0.044854
0.053035
0.059976
0.045996
0.046778
0.037530
0.033666
0.035804
0.039370
0.035345
0.044602
0.044174
0.037276
0.021386
0.025671
0.024770
0.014347
0.032679
0.035034
0.029552
0.033267
0.030252
0.029464
0.029706
0.025669
0.038862
0.033305
0.037601
0.040742
0.027599
0.028373
0.057582
0.035567
0.035364
0.054235
0.036664
0.040639
0.029410
0.038633
0.008346
0.009134
0.013100
0.013961
0.019506
0.021948
0.016641
0.016563
0.018223
0.022080
0.020046
0.012688
0.024815
0.021796
0.022707
0.020708
0.023253
0.035530
0.034697
0.037545
0.033114
0.028022
0.019010
0.027426
0.028051
0.041577
0.024254
0.025109
0.019252
0.016871
0.016417
0.015860
0.014467
0.011513
0.009270
0.009827
0.010682
0.011834
0.053047
0.025076
0.032168
0.036222
0.046876
0.033615
0.045054
0.038643
0.046446
0.049330
0.057920
0.034596
0.034734
0.033888
0.031072
0.023038
0.024998
0.024564
0.018412
0.018009
0.017830
0.020057
0.018861
0.012635
0.010436
0.011442
0.024458
0.050349
0.010358
0.019299
0.011688
0.022838
0.016086
0.016434
0.012989
0.022106
0.025125
0.025772
0.025407
0.019043
0.014511
0.019361
0.039819
0.024349
0.043204
0.033559
0.004291
0.004015
0.008754
0.041463
0.023277
0.016346
0.007393
0.005674
0.003805
0.002803
0.003909
0.004258
0.004207
0.004945
0.004759
0.004716
0.004743
0.005911
0.006106
0.035704
0.011600
0.012100
0.013140
0.016362
0.020416
0.018921
0.017865
0.015014
0.024550
0.033384
0.082634
0.039523
0.019797
0.002122
0.012940
0.006254
0.014957
0.031337
0.034443
0.038374
0.041081
0.030108
0.034582
0.025640
0.020111
0.043534
0.037885
0.027715
0.043530
0.026101
0.025507
0.028208
0.015597
0.029235
0.016805
0.025257
0.014755
0.008669
0.009477
0.011378
0.027077
0.027445
0.034061
0.030217
0.031425
0.031239
0.040339
0.039066
0.024990
0.032230
0.041944
0.025821
0.035436
0.041904
0.038076
0.040446
0.046245
0.052701
0.048406
0.048010
0.055753
0.041194
0.037908
0.040356
0.026052
0.043578
0.035852
0.038697
0.042943
0.029343
0.039321
0.039215
0.051013
0.044648
0.051086
0.030944
0.032017
0.024732
0.026138
0.019023
0.021825
0.021248
0.019509
0.016880
0.018295
0.020164
0.018685
0.013883
0.010543
0.013569
0.018472
0.015316
0.012538
0.016492
0.041390
0.015974
0.010291
0.025604
0.015935
0.014988
0.014996
0.023613
0.022760
0.022985
0.021618
0.018735
0.014125
0.010858
0.044672
0.035272
0.025281
0.036338
0.007866
0.010610
0.017129
0.016643
0.018311
0.016631
0.028835
0.026835
0.024758
0.020954
0.015380
0.018274
0.022613
0.017847
0.053950
0.074388
0.029441
0.026794
0.050102
0.035558
0.033161
0.025243
0.026971
0.039113
0.038924
0.004334
0.004983
0.006273
0.008325
0.008005
0.005278
0.005056
0.006101
0.006486
0.063104
0.027681
0.037957
0.037888
0.039061
0.043055
0.042584
0.041410
0.035782
0.030215
0.023495
0.024474
0.015404
0.017932
0.019107
0.019396
0.016634
0.018795
0.019814
0.018906
0.014846
0.012411
0.012708
0.014716
0.005414
0.014235
0.010058
0.060494
0.004414
0.008240
0.028513
0.009216
0.027154
0.016845
0.022950
0.021725
0.020785
0.019466
0.017185
0.016866
0.015385
0.016970
0.023865
0.029700
0.014357
0.021829
0.025550
0.025405
0.026475
0.027352
0.032581
0.035363
0.031788
0.046143
0.044495
0.040381
0.037158
0.010699
0.002155
0.014057
0.018800
0.028796
0.020595
0.020040
0.015191
0.029111
0.043164
0.046690
0.030917
0.033711
0.037289
0.026651
0.033763
0.040440
0.041539
0.034505
0.041240
0.033120
0.036744
0.024728
0.030508
0.014456
0.028775
0.026164
0.035057
0.018154
0.010016
0.011432
0.011405
0.012275
0.006212
0.008615
0.014667
0.020728
0.015172
0.011761
0.023498
0.028078
0.021041
0.018416
0.023845
0.020816
0.020862
0.020996
0.026895
0.021842
0.027575
0.036490
0.044628
0.059519
0.048412
0.043562
0.056841
0.030815
0.044650
0.039929
0.034081
0.046805
0.051252
0.033594
0.010633
0.008706
0.004474
0.033636
0.032618
0.001881
0.014116
0.006090
0.014296
0.017317
0.016134
0.021660
0.029015
0.033705
0.024270
0.015551
0.005600
0.005857
0.008515
0.032267
0.045916
0.029164
0.050354
0.055847
0.033666
0.032771
0.028096
0.026609
0.014973
0.020463
0.015864
0.018217
0.017793
0.016594
0.016482
0.019922
0.021421
0.020899
0.014726
0.014743
0.010125
0.010820
0.004601
0.014598
0.009050
0.048393
0.039419
0.043983
0.031962
0.032657
0.044548
0.018957
0.027983
0.015296
0.024020
0.019045
0.019111
0.012539
0.010943
0.011575
0.013382
0.014847
0.016361
0.017253
0.017974
0.022321
0.014540
0.007280
0.018609
0.031954
0.031783
0.033340
0.055819
0.045790
0.038847
0.037257
0.056271
0.035567
0.046664
0.040192
0.035405
0.036467
0.033899
0.032024
0.024031
0.044143
0.037001
0.038913
0.053488
0.049179
0.031493
0.044416
0.038487
0.025603
0.016242
0.016489
0.012878
0.011790
0.007997
0.008781
0.015110
0.018360
0.013326
0.012481
0.023058
0.016067
0.018241
0.019585
0.023956
0.029665
0.024805
0.041416
0.041744
0.043527
0.031478
0.050363
0.043019
0.036846
0.028936
0.026954
0.028124
0.039859
0.036073
0.043959
0.024018
0.036313
0.026109
0.032212
0.031352
0.033191
0.020166
0.023497
0.016430
0.019099
0.013232
0.015296
0.016906
0.015340
0.016249
0.019789
0.021405
0.024181
0.016830
0.012518
0.010699
0.012980
0.008957
0.009998
0.016231
0.008480
0.032513
0.016717
0.023170
0.021873
0.016717
0.023790
0.019558
0.018993
0.016765
0.015248
0.014706
0.018097
0.016009
0.021937
0.022465
0.018105
0.016779
0.013934
0.013021
0.020679
0.033654
0.032144
0.019925
0.013163
0.013332
0.006387
0.004695
0.012140
0.014873
0.021136
0.019053
0.034177
0.023475
0.018561
0.014394
0.010687
0.008156
0.005054
0.011445
0.011417
0.014474
0.013897
0.012155
0.011467
0.014188
0.016593
0.018253
0.045186
0.041312
0.037537
0.044547
0.042854
0.010344
0.011326
0.020741
0.013302
0.009170
0.009694
0.012057
0.026097
0.020061
0.027113
0.025960
0.033843
0.033631
0.033169
0.048769
0.015681
0.016545
0.015484
0.014011
0.011694
0.012230
0.013684
0.015142
0.030491
0.014329
0.022930
0.020939
0.017489
0.013897
0.010677
0.011504
0.009216
0.007033
0.011598
0.010427
0.020801
0.012155
0.011233
0.009758
0.011960
0.014681
0.009532
0.019567
0.016969
0.024678
0.017733
0.012741
0.024110
0.023279
0.020059
0.013358
0.014258
0.013592
0.013984
0.018122
0.024972
0.013320
0.014819
0.013043
0.010134
0.012715
0.013429
0.009987
0.015947
0.007708
0.011119
0.000299
0.000544
0.000524
0.000489
-0.000049
-0.000929
0.042827
0.230872
0.002821
0.003622
0.008008
0.008866
0.020355
0.021352
0.020141
0.010737
0.005420
0.013436
-0.001337
-0.001269
0.001424
0.000790
0.006504
0.028177
0.010611
0.011534
0.027106
0.019328
0.030825
0.030515
0.028846
0.035165
0.034665
0.022087
0.018139
0.014728
0.002406
0.003305
0.003287
0.001889
0.002895
0.002651
0.002408
0.003561
0.003505
0.012013
0.016642
0.013245
0.004142
0.004234
0.004285
0.011866
0.016390
0.012165
0.011110
0.019852
0.011869
0.027465
0.018892
0.033374
0.036233
0.033326
0.029274
0.050087
0.032413
0.016922
0.011957
0.017929
0.051167
0.039474
0.027095
0.019771
0.012507
0.026163
0.024418
0.018795
0.014227
0.016009
0.005515
0.006414
0.008325
0.004527
0.004813
0.005912
0.031440
0.041529
0.032175
-0.000135
0.018498
0.021397
0.002674
0.002703
-0.000575
0.000084
-0.002554
0.022878
0.021261
0.018635
0.011363
0.035161
0.021639
0.004042
0.002516
0.001242
0.003639
0.002525
-0.003401
0.000355
0.003123
0.002353
0.003001
0.002096
0.001900
0.001453
0.000382
0.001309
0.013164
0.007391
0.001274
0.000432
0.001138
0.000552
0.000796
-0.000413
-0.000740
0.002779
-0.000222
-0.001498
-0.000417
0.001074
0.000407
0.001200
0.000666
0.000860
0.000407
-0.000605
-0.001587
0.000295
-0.000750
-0.000289
0.002388
0.000328
-0.000106
0.000065
-0.000749
-0.000170
-0.000054
-0.000300
-0.000090
0.000243
-0.000106
-0.000290
-0.000146
-0.000595
-0.000064
0.001353
0.003670
0.003687
0.004133
0.002859
0.000823
0.003723
0.023125
0.032405
0.037800
0.036384
0.039095
0.043653
0.040631
0.038918
0.035759
0.026258
0.020716
0.022589
0.015392
0.009805
0.008500
0.007461
0.004701
0.006776
0.014304
0.014663
0.010955
0.000187
0.014145
0.024288
0.030675
0.030477
0.045116
0.039511
0.034203
0.032191
0.026697
0.023786
0.023946
0.024018
0.024372
0.028979
0.034208
0.039740
0.047058
0.048879
0.034793
0.063916
0.008658
0.015447
0.005661
0.004374
0.002137
0.000475
0.002676
0.009890
0.000369
0.000459
0.002166
0.004360
0.014693
0.008511
0.010384
0.014301
0.011590
0.009856
0.017233
0.010404
0.020674
0.028237
0.030065
0.040745
0.037582
0.075050
0.034648
0.082032
0.045969
0.088765
0.059359
0.092821
0.078345
0.068098
0.064605
0.058441
0.064662
0.051293
0.050624
0.043276
0.039810
0.042758
0.022260
0.021022
0.027418
0.021550
0.022278
0.006856
0.011282
0.006651
0.006182
0.022888
0.007782
0.012254
0.015229
0.018368
0.012918
0.031253
0.015178
0.027374
0.028515
0.029866
0.044099
0.007001
0.007328
0.000981
0.001981
0.000509
0.002596
-0.001712
0.000329
0.000011
-0.000019
0.000675
0.000331
0.004014
-0.000159
0.000439
0.000514
0.002582
0.001543
0.000333
0.006718
-0.000028
0.000207
0.000246
-0.000994
0.002725
0.005561
0.002134
0.001387
0.012183
0.006683
0.008510
0.002450
0.000823
0.001170
-0.002433
0.013224
0.020627
0.026449
0.029291
-0.001828
0.004194
0.002875
0.002282
0.003529
0.007421
0.003044
0.000686
0.001816
0.014532
0.017801
0.011696
0.008741
0.010965
0.001376
0.001697
0.003579
0.000684
-0.002166
0.002258
-0.001112
-0.000350
0.002016
-0.000200
-0.000596
0.001490
-0.000331
-0.001592
-0.002015
-0.005913
-0.001780
-0.000297
-0.000931
-0.000208
0.000708
0.000781
0.000989
-0.000961
-0.000488
-0.000389
-0.000616
-0.000624
-0.000512
-0.000116
-0.000458
-0.000479
-0.001307
-0.001617
-0.000519
0.000665
0.002511
0.002203
0.002904
0.001519
0.001315
0.002902
0.002388
0.004673
0.004098
0.006886
0.002483
0.004300
0.045497
0.028809
0.007849
0.005056
0.002196
-0.000984
-0.010389
-0.015265
-0.001434
-0.001317
-0.000198
0.000080
0.000623
0.002799
0.005511
0.014531
0.013390
0.011060
0.008054
0.010188
0.008229
0.015638
0.024120
0.026818
0.029633
0.031969
0.072345
0.047236
0.047944
0.069842
0.079442
0.068789
0.073698
0.065696
0.066031
0.056762
0.063343
0.050865
0.051449
0.037065
0.037623
0.037662
0.029208
0.024590
0.024619
0.022135
0.022222
0.005343
0.007403
0.004758
0.004853
0.016825
0.009534
0.014286
0.011816
0.011746
0.019993
0.016865
0.018745
0.021079
0.028865
0.032102
0.068013
0.056902
0.006303
0.000613
0.000227
0.000214
-0.001217
0.001108
0.000152
-0.002515
-0.000695
0.000128
0.013731
0.003391
0.002589
-0.001190
0.000639
-0.001838
-0.000407
0.020171
0.027189
0.013181
0.002329
0.004865
0.030821
0.008182
0.012424
0.012699
0.015145
0.001406
0.017690
-0.001032
0.000795
0.002167
0.002306
0.003122
0.003449
0.001954
0.001406
0.000164
-0.001930
-0.000288
0.008952
0.006766
-0.000883
-0.004272
0.003141
-0.000298
0.003495
0.013518
0.042685
0.077809
0.046896
0.041818
0.016873
0.018117
0.006992
0.006631
0.015512
0.045892
0.010148
0.001805
0.017143
0.038038
0.041030
0.022217
0.011642
0.009585
0.012668
0.010394
0.007650
0.009799
0.011170
0.007975
0.011657
0.010948
0.028077
0.029669
0.031159
0.038701
0.025026
0.041568
0.016388
0.020531
0.025336
0.015687
0.015084
0.009110
0.007792
0.024064
0.028681
0.026265
0.008932
0.016480
0.014133
0.014991
0.014098
0.009900
0.012870
0.009234
0.010359
0.005702
0.009901
0.000668
0.019178
0.003455
0.000464
-0.001149
0.000300
0.005015
0.001260
-0.000700
-0.002553
-0.001117
-0.002423
-0.001150
-0.000291
-0.000908
-0.000166
0.000319
0.001368
0.002100
-0.000402
-0.000062
0.000208
-0.000280
-0.000231
-0.000577
-0.001360
-0.002983
-0.003534
-0.000930
-0.001677
0.003086
0.001977
0.002889
0.002217
0.001841
0.001743
0.002289
0.003137
0.009170
0.006865
0.001616
0.008696
0.029875
0.023472
0.022000
0.029513
0.028345
0.023382
0.022430
0.015593
0.019066
0.022412
0.010664
0.020977
0.020288
0.044608
0.039419
0.022067
0.001272
0.033370
0.007417
0.015789
0.000533
0.005302
-0.000688
0.018130
0.003356
0.002967
0.004666
0.003936
0.005705
0.002444
-0.003128
-0.008084
-0.007957
-0.008929
0.008550
-0.000196
0.000284
0.000155
0.001196
0.002564
0.012050
0.009136
0.008545
0.005841
0.007761
0.007124
0.011766
0.017546
0.026823
0.025844
0.032671
0.048324
0.044662
0.045839
0.038696
0.062126
0.057855
0.064626
0.060129
0.068532
0.064427
0.069149
0.060541
0.069860
0.047712
0.051372
0.054878
0.046900
0.041957
0.035023
0.038903
0.024891
0.021539
0.021741
0.023001
0.021806
0.007813
0.002178
0.002852
0.005154
0.007250
0.007406
0.016110
0.012728
0.013219
0.014839
0.016076
0.016223
0.022336
0.003629
0.004219
0.003589
0.003653
0.001932
-0.001477
-0.000486
0.001832
0.049747
0.006933
0.002514
-0.006114
-0.001114
-0.000154
0.000671
0.010456
0.039138
0.045736
0.037355
0.021967
0.013635
0.015475
0.016328
0.022241
0.009160
0.012722
0.015693
0.000719
0.009772
0.038019
0.014205
0.010704
0.007915
0.006824
0.010023
0.005635
0.007896
0.005965
0.010546
0.005734
0.024805
0.021576
0.009298
0.075667
0.003135
0.003236
0.016912
0.010564
0.007875
0.018750
0.013055
0.035493
0.019495
0.013451
0.001963
0.015050
0.003469
-0.000389
-0.000598
0.004166
0.010977
0.098710
0.030790
0.005708
0.013359
0.011280
0.010610
0.012766
0.028725
0.018468
0.015637
0.006995
0.010833
0.004250
0.039044
0.007216
0.000694
0.000133
0.000719
0.000007
0.000520
0.000630
0.001140
0.002322
0.000571
0.000153
0.000065
0.000156
0.000152
-0.000121
-0.001460
-0.007227
-0.004552
-0.003936
0.000544
-0.000569
0.004410
0.002379
0.002420
0.002567
0.001742
0.002502
0.002818
0.004727
0.012418
0.062128
0.005067
-0.001145
-0.004583
-0.003767
-0.009339
0.000529
0.001142
0.000832
0.000982
0.003393
0.003151
0.005836
0.007348
0.005406
0.006702
0.006249
0.008450
0.016633
0.023618
0.025049
0.027143
0.037192
0.048828
0.037554
0.044408
0.050181
0.059580
0.042025
0.048421
0.045657
0.091641
0.056420
0.063468
0.060997
0.066550
0.062755
0.050816
0.044124
0.055227
0.044429
0.036232
0.036139
0.032076
0.028722
0.025492
0.020065
0.019414
0.022615
0.005060
0.004211
0.001611
0.001577
0.004788
0.007268
0.009932
0.015281
0.015057
0.017566
0.013914
0.016493
0.005669
0.004050
0.008533
0.009856
0.007760
0.010604
0.016248
0.022975
0.018301
0.026932
0.027539
0.026779
0.036614
0.021227
0.027125
0.034113
0.040094
0.014337
0.013486
0.001458
0.025012
0.029553
0.002237
0.005899
0.000173
0.002310
0.003258
0.004089
0.000933
0.003796
0.005835
0.005995
0.002771
-0.000845
-0.000571
0.004223
0.012165
0.027495
0.013965
0.001439
-0.000758
-0.000005
0.002676
0.011735
0.018051
0.015569
0.023679
0.021758
0.037076
0.035753
0.030818
0.021067
0.017572
0.015257
0.019898
0.032657
0.016846
0.031302
0.003856
0.001816
0.005670
0.004772
0.023244
0.016974
0.018058
0.013993
0.003517
0.001788
-0.000691
0.002144
0.007551
0.008036
0.004847
-0.003475
-0.000127
-0.002562
0.020396
0.008516
-0.000567
0.000390
0.001509
0.003662
0.006035
0.009763
0.007777
0.008368
0.007996
0.006298
0.007272
0.004633
0.010222
0.016873
0.018526
0.023723
0.024168
0.032383
0.046052
0.036117
0.033076
0.044085
0.039833
0.041577
0.042425
0.046989
0.069908
0.021304
0.013737
0.010133
0.000884
0.002498
0.005168
0.020505
0.002249
0.004987
0.018658
0.010747
0.006370
0.005391
0.003202
0.002324
0.002513
0.003217
0.004479
0.008557
0.013411
0.012976
0.023757
0.022676
0.024943
0.027156
0.019108
0.031825
0.044275
0.049557
0.012287
0.021534
0.010644
0.008287
0.025843
0.021139
0.006611
0.010784
0.000366
0.001982
0.005217
0.005324
0.005986
0.005175
0.005485
0.016393
0.034752
0.032986
0.049214
0.063117
0.065395
0.036102
0.017653
0.011377
0.011641
0.009393
0.011178
0.014079
0.023568
0.024698
0.022936
0.007695
0.018277
0.017606
0.006243
0.001114
0.001118
0.001531
0.000672
0.001181
0.001130
0.001124
0.001676
0.000724
0.060916
0.056878
0.060587
0.062972
0.058859
0.047163
0.046282
0.047179
0.039437
0.038708
0.026696
0.028439
0.023502
0.016287
0.012516
0.015052
0.006222
0.003934
0.001048
0.000415
0.002756
0.007806
0.006399
0.014216
0.019903
0.017435
0.000671
0.000236
0.000485
-0.000002
-0.002424
-0.001412
-0.002442
-0.006874
0.008529
0.012502
0.010697
0.009307
0.010559
0.008411
0.003157
0.002042
0.003423
0.003599
0.005701
0.003443
0.023160
0.017297
0.021009
0.018063
0.016680
0.022691
0.044340
0.085552
0.030577
0.026598
0.032995
0.012646
0.011522
0.018447
0.016680
0.004163
0.004387
0.001412
0.002456
0.005303
0.008138
0.007379
0.002553
0.001250
0.002817
0.010099
0.017217
0.014020
0.004139
0.000123
0.000708
0.003459
0.003168
0.005970
0.013940
0.020677
0.016792
0.018624
0.001421
0.000628
0.008913
0.031978
0.009450
0.002660
0.002597
0.005238
0.041605
0.010675
0.024610
0.005067
0.008066
0.005126
0.009571
0.014271
0.014143
0.010354
0.008288
0.008739
0.008549
0.005873
0.004739
0.013389
0.015619
0.017757
0.025703
0.026075
0.028190
0.036991
0.036933
0.046921
0.038477
0.039977
0.039831
0.045518
0.045526
0.059589
0.008639
0.009623
0.013733
0.016602
0.021016
0.014419
0.014021
0.035396
0.034383
0.032326
0.028851
0.027434
0.026918
0.019470
0.024288
0.013482
0.009257
0.020503
0.004645
0.058149
0.050411
0.060625
0.059866
0.046411
0.047630
0.037761
0.043769
0.037807
0.041612
0.034247
0.030679
0.036188
0.027294
0.024484
0.016489
0.015013
0.012412
0.009540
0.007156
0.004780
0.001047
0.001217
0.005197
0.007870
0.006655
0.011500
0.000891
0.000722
0.000779
0.001342
0.000248
0.007143
0.041508
0.036951
0.162836
0.055100
0.042259
0.031451
0.018882
0.015713
0.012546
0.004359
0.003529
0.002760
0.002858
0.003837
0.002621
0.011811
0.008342
0.009781
0.013236
0.016348
0.018846
0.018302
0.008847
0.025603
0.028899
0.027502
0.020704
0.019036
0.019798
0.012242
0.016511
0.012079
0.008874
0.005586
0.013600
0.009634
0.002201
0.002006
0.021584
0.020183
0.016041
0.014427
0.016925
0.014572
0.019122
0.026205
0.023455
0.018743
0.013587
0.008315
0.007549
0.012112
0.006013
0.003474
0.001692
0.002765
0.001185
0.001655
0.001881
0.000886
0.017368
0.011236
0.012179
0.018877
0.042903
0.068913
0.026529
0.017455
0.012171
0.011259
0.013468
0.007944
0.008175
0.013896
0.030836
0.031766
0.038639
0.043388
0.010238
0.008977
0.005809
0.005017
0.013669
0.016227
0.019611
0.022759
0.026782
0.031115
0.027270
0.032511
0.033245
0.059741
0.054313
0.053915
0.042697
0.047892
0.042806
0.056002
0.048394
0.048037
0.049025
0.057627
0.044834
0.045713
0.036517
0.037702
0.011227
0.009914
0.008015
0.005604
0.014723
0.015051
0.021915
0.021439
0.031057
0.019027
0.016863
0.013391
0.016389
0.009547
0.009041
0.015548
0.016495
0.022472
0.021280
0.039058
0.032586
0.031746
0.027731
0.017633
0.020515
0.014288
0.011130
0.006723
0.006341
0.006419
0.003110
0.002560
0.008867
0.012577
0.007065
0.005505
-0.000630
0.001674
0.006056
0.008343
0.011557
0.012616
0.001624
0.002878
0.006672
0.013799
0.014529
0.005658
0.001451
0.000663
0.030495
0.012269
0.015682
0.011256
0.013218
0.035860
0.012469
0.002857
0.002952
0.001903
0.001657
0.001947
0.001336
0.065989
0.037743
0.013470
0.014733
0.001079
0.001514
0.001004
0.005448
0.025353
0.027664
0.038749
0.083015
0.063453
0.053412
0.040507
0.026271
0.022351
0.020309
0.007642
0.004279
0.001953
0.002066
0.003107
0.002682
0.025577
0.037458
0.034367
0.040676
0.040342
0.044186
0.041944
0.051989
0.051988
0.050981
0.028532
0.022931
0.025981
0.019059
0.035161
0.035062
0.018341
0.019202
0.015344
0.021421
0.012626
0.017975
0.050861
0.027223
0.031734
0.041269
0.041386
0.045831
0.040531
0.059584
0.045602
0.051160
0.046635
0.051358
0.043197
0.051603
0.043333
0.046718
0.037711
0.037769
0.039870
0.041833
0.034895
0.028954
0.044686
0.023538
0.030578
0.024052
0.031257
0.038878
0.036409
0.045769
0.042512
0.038420
0.046849
0.042931
0.046964
0.047918
0.058869
0.032698
0.050878
0.039411
0.036445
0.037160
0.036004
0.036759
0.035998
0.027728
0.028022
0.019287
0.013346
0.010673
0.006838
0.006075
0.005837
0.004560
0.003495
0.004474
0.024625
0.037897
0.028811
0.034208
0.023019
0.028814
0.024954
0.014169
0.014909
0.020375
0.013907
0.013616
0.013240
0.012597
0.021629
0.041484
0.040406
0.029771
0.026763
0.036969
0.024899
0.019752
0.016313
0.016902
0.015993
0.012616
0.010483
0.007956
0.007864
0.006924
0.010674
0.007165
0.003763
0.003171
0.002821
0.003222
0.006309
0.009158
0.013981
0.025118
0.027323
0.002028
0.001277
0.001223
0.005187
0.010605
0.023792
0.035938
0.055747
0.057142
0.043918
0.040009
0.036305
0.028135
0.025983
0.023692
0.018445
0.008600
0.003319
0.002256
0.001629
0.001921
0.001875
0.024404
0.004684
0.009865
0.013847
0.009853
0.003968
0.002150
0.008352
0.012256
0.014562
0.003243
0.002162
0.001880
0.025781
0.009518
0.007324
0.006834
0.033398
0.052727
0.036561
0.049329
0.036941
0.048397
0.043092
0.037080
0.036867
0.034926
0.037010
0.033074
0.036362
0.027105
0.004567
0.012281
0.011805
0.009999
0.011151
0.004098
0.008763
0.001355
0.002397
0.004502
0.006740
0.010074
0.013423
0.021033
0.041359
0.042139
0.035823
0.031838
0.037354
0.037760
0.037091
0.037690
0.002484
0.003502
0.006219
0.008791
0.012738
0.027947
0.035499
0.040047
0.054901
0.050538
0.040430
0.033883
0.033414
0.030176
0.029807
0.021250
0.022765
0.007535
0.005008
0.002489
0.002146
0.002398
0.017404
0.020727
0.022009
0.021125
0.020688
0.019602
0.013561
0.009677
0.005802
0.006162
0.004402
0.004587
0.008965
0.006936
0.002952
0.007510
0.009747
0.012345
0.010144
0.003108
0.004116
0.010646
0.015497
0.018127
0.015958
0.003469
0.014509
0.018887
0.007867
0.004669
0.006925
0.006399
0.007766
0.003100
0.006530
0.000663
0.007060
0.008244
0.011308
0.014382
0.024799
0.035335
0.036444
0.032325
0.033034
0.015233
0.021063
0.016250
0.020723
0.014336
0.042298
0.036804
0.013308
0.016208
0.017893
0.020612
0.025528
0.041092
0.033472
0.041364
0.049312
0.036761
0.038370
0.038228
0.034238
0.037036
0.035386
0.024720
0.013873
0.009949
0.006812
0.004639
0.006633
0.005834
0.008057
0.012044
0.022795
0.027637
0.026619
0.026651
0.030957
0.032832
0.025839
0.031234
0.029573
0.029171
0.019452
0.025259
0.018018
0.004129
0.006255
0.036733
0.038548
0.038501
0.038158
0.035282
0.036125
0.011619
0.009383
0.012813
0.010461
0.006879
0.009122
0.014856
0.004537
0.004445
0.005097
0.003095
-0.001221
0.000590
0.001917
0.015945
0.024291
0.045949
0.035850
0.036807
0.012627
0.014276
0.013698
0.024834
0.018852
0.015203
0.008329
0.013475
0.012139
0.028662
0.030890
0.033484
0.037074
0.041753
0.031190
0.034700
0.045662
0.038511
0.045510
0.039376
0.048609
0.041356
0.039799
0.036840
0.005788
0.007986
0.037683
0.041010
0.037753
0.037958
0.015776
0.013343
0.006677
0.001882
0.030617
0.029541
0.030618
0.028829
0.020553
0.021544
0.018759
0.015607
0.012479
0.013675
0.008633
0.006242
0.007788
0.010825
0.029895
0.028105
0.026444
0.028400
0.027511
0.006731
0.013546
0.009481
0.011145
0.011362
0.011460
0.039073
0.045896
0.030467
0.035494
0.036352
0.030278
0.026888
0.022956
0.019945
0.013870
0.012462
0.011644
0.009679
0.008573
0.009132
0.006652
0.043636
0.037994
0.042997
0.041912
0.034341
0.030265
0.041254
0.032908
0.044203
0.032480
0.025093
0.023816
0.017764
0.018978
0.015527
0.011396
0.010941
0.010731
0.022051
0.021554
0.024740
0.007698
0.026676
0.031746
0.038983
0.026092
0.026140
0.045811
0.014009
0.040067
0.009886
0.015911
0.014752
0.024696
0.012088
0.009337
0.004211
0.009096
0.032864
0.018858
0.029744
0.030815
0.042860
0.027952
0.037424
0.031129
0.047193
0.038522
0.041325
0.044037
0.041189
0.043682
0.044812
0.036582
0.034802
0.038226
0.040265
0.029743
0.043610
0.036561
0.019420
0.037725
0.027211
0.029163
0.026623
0.035277
0.027642
0.035903
0.042519
0.042739
0.005998
0.006973
0.032764
0.011949
0.007665
0.006444
0.008573
0.008979
0.008093
0.007817
0.011215
0.017622
0.006334
0.011668
0.001218
0.039246
0.000628
0.024020
0.025889
0.013159
0.019280
0.055024
0.055603
0.042752
0.017086
0.013723
0.013471
0.011104
0.005038
0.008021
0.007930
0.007884
0.006454
0.007438
0.031314
0.040347
0.029517
0.032601
0.031197
0.026869
0.027431
0.033042
0.013188
0.037189
0.040828
0.041946
0.008703
0.007406
0.004292
0.009555
0.008613
0.003621
0.013802
0.041928
0.039601
0.033322
0.023059
0.033761
0.028172
0.024847
0.003815
0.009600
0.009209
0.022501
0.022139
0.011612
0.010296
0.008188
0.005820
0.006517
0.008280
0.002069
0.003191
0.000619
-0.000706
-0.000095
0.001736
-0.002291
0.002118
0.002253
0.000963
0.004479
0.000919
0.001422
0.003459
0.003217
0.005358
0.005467
-0.000343
0.000063
0.003746
-0.001191
0.000084
0.005804
0.003124
-0.000570
0.036623
0.030557
0.035380
0.030024
0.030671
0.038645
0.043045
0.030908
0.046227
0.017108
0.014491
0.014810
0.016494
0.010225
0.006826
0.011652
0.003367
0.006428
0.007598
0.013616
-0.001084
-0.003132
-0.000768
0.000340
0.003889
0.002390
0.007080
0.006154
0.002169
0.006174
0.001011
0.000588
0.001737
0.000500
-0.001171
0.000213
0.000769
0.000406
-0.000079
-0.000261
0.000174
-0.000539
-0.000219
-0.000754
0.000459
-0.000759
0.000853
0.000350
0.001299
0.000437
0.002048
0.007504
0.001444
0.005465
0.001626
0.001647
0.000753
0.000382
0.000405
0.000451
0.001077
0.007018
0.002110
0.001447
0.002960
0.001951
0.001279
0.001018
0.000837
-0.000653
0.000188
0.026985
0.036892
0.014108
0.029421
0.007813
0.034921
0.016459
0.046157
0.017859
0.048238
0.079601
0.011445
0.094907
0.025376
0.056121
0.038970
0.068228
0.016145
0.057331
0.013395
0.055046
0.015061
0.045816
0.016750
0.048456
0.016982
0.048582
0.015047
0.045024
0.017240
0.037041
0.032753
0.081454
0.011079
0.064947
0.026556
0.054242
0.062886
0.058496
0.014266
0.061835
0.018496
0.064160
0.031660
0.062262
0.018153
0.050702
0.000159
-0.000855
0.005993
0.009568
0.011115
0.006472
0.003803
0.001882
0.000748
0.001348
0.004768
0.006086
0.009366
0.026158
0.000065
0.003752
0.008639
0.004968
0.008821
0.010471
0.004075
0.001895
0.001866
0.000623
0.000568
0.000430
-0.000870
0.002006
0.009137
0.001912
0.000101
0.003231
0.002265
-0.000097
0.000547
0.007864
0.000659
0.000795
0.000549
0.000706
0.025066
0.004219
0.008140
0.010480
-0.001049
-0.003149
-0.000132
0.001984
0.009045
0.008941
0.003508
0.001272
0.000076
-0.000594
0.000457
0.000413
0.001126
0.000935
0.000731
0.000877
0.000768
-0.000370
-0.000119
-0.000060
-0.001268
-0.001908
-0.005401
-0.002198
-0.000213
0.001663
0.002768
0.003862
0.007453
0.003395
0.005289
0.004309
0.002406
0.001554
0.000278
-0.000221
0.001450
0.000699
0.003717
0.005404
0.003498
0.003801
0.001389
0.000669
-0.000328
-0.001487
0.009203
0.002726
0.024895
0.005634
-0.007966
-0.001834
0.032054
0.025861
0.019685
0.013960
0.022127
0.018625
0.024174
0.037185
0.038418
0.047288
0.042657
0.053171
0.052031
0.038685
0.061200
0.049210
0.044969
0.029274
0.044858
0.027429
0.032865
0.027261
0.030933
0.029086
0.031058
0.030546
0.029013
0.022925
0.025642
0.028210
0.036678
0.060113
0.036277
0.038550
0.059446
0.023941
0.078842
0.025652
0.038721
0.038869
0.040092
0.042215
0.101274
0.030099
0.049191
0.039976
0.029043
0.041105
0.037581
0.038251
0.048483
0.048309
0.042961
0.034920
0.015290
0.014857
0.013319
0.009195
0.007616
0.001786
0.003504
0.002190
0.016141
0.017780
-0.002521
0.001580
0.001589
0.002881
0.005939
0.003077
0.003331
0.002213
0.003599
0.008559
0.015640
0.031722
0.006992
0.000963
0.000569
0.000397
0.000375
0.003308
0.001364
0.001764
0.001471
0.001571
0.003222
0.015994
0.019152
0.072705
0.100054
0.036600
0.027140
0.000264
0.000031
0.007962
-0.000668
-0.001462
-0.000488
0.000291
0.005875
0.016900
0.050194
0.033294
0.011641
0.003986
0.001210
0.003346
0.001402
-0.000215
-0.003974
-0.000231
0.000579
0.002430
0.000976
-0.001054
-0.000362
-0.003570
-0.004629
-0.003220
0.002899
0.007275
0.011424
0.007226
0.009058
0.005085
0.003270
0.001532
0.000135
0.000201
0.000599
0.000262
0.001389
0.010188
0.009102
0.025852
0.006216
0.003405
0.001033
-0.000207
0.008562
0.003093
0.008727
0.009689
0.003235
0.008723
0.010660
0.016983
0.021217
0.025775
0.024952
0.013635
0.011961
0.005520
0.009766
0.004363
0.006506
0.003833
0.004388
0.002018
0.001426
0.003235
0.001671
0.000273
0.051745
0.035422
0.042715
0.049711
0.045198
0.055133
0.048651
0.076115
0.049494
0.050094
0.036058
0.025559
0.036800
0.016504
0.005347
0.034382
0.036161
0.028864
0.017627
0.015344
0.016239
0.017151
0.022980
0.043526
0.045759
0.065368
0.075483
0.038891
0.060684
0.038794
0.060399
0.044373
0.040994
0.029442
0.037200
0.026344
0.032790
0.027867
0.030320
0.029116
0.031925
0.031792
0.032530
0.024284
0.029167
0.021301
0.034223
0.034451
0.036567
0.045440
0.050199
0.041106
0.049442
0.037011
0.025984
0.063583
0.033578
0.034163
0.053219
0.037951
0.000265
0.002869
0.025272
0.027478
0.014413
0.001967
0.001855
0.003799
0.005680
0.006027
0.012049
0.029035
0.050952
0.079200
0.057977
0.027061
0.024789
0.002141
0.002566
0.013036
0.029798
0.009945
0.000398
-0.000100
0.000242
0.005830
0.027187
0.025796
0.036854
0.029113
0.038026
0.049749
0.031783
0.004930
0.003743
0.001152
0.000217
-0.002541
-0.002505
0.000880
0.000643
0.000223
0.000030
-0.000118
-0.000782
0.000016
0.001217
0.004400
0.013492
0.012237
0.009439
0.007669
0.005152
0.002681
0.001497
0.000965
0.002133
0.011992
0.010678
0.079093
0.013581
0.017579
0.005671
0.001450
0.000654
0.003338
0.004731
0.004154
0.006350
0.006055
0.004320
0.006927
0.008303
0.010887
0.011619
0.034725
0.036828
0.048950
0.039920
0.040847
0.050292
0.049076
0.049616
0.025798
0.041249
0.027389
0.024796
0.033727
0.008533
0.013018
0.031717
0.021272
0.028220
0.006802
0.006540
0.004591
0.008891
0.009107
0.007086
0.002131
0.002850
0.001134
0.000930
0.005683
0.006724
0.010516
0.013539
0.018875
0.019171
0.029884
0.041830
0.076294
0.043056
0.042878
0.044233
0.070267
0.034615
0.042271
0.032159
0.033540
0.026636
0.028482
0.025281
0.028189
0.034815
0.032919
0.034648
0.043103
0.033894
0.032323
0.018287
0.026591
0.026540
0.031501
0.039953
0.026628
0.065699
0.045651
0.042760
0.019215
0.040482
0.041720
0.035325
0.037651
0.038336
0.001335
0.005334
0.025299
0.004216
0.007321
0.004208
0.007374
0.007574
0.007099
0.018553
0.026236
0.040413
0.056988
0.038049
0.027387
0.040873
0.063724
0.016690
0.026093
0.005915
0.040735
0.016497
0.007882
0.003717
0.000463
0.002231
0.011203
0.027015
0.040638
0.040536
0.037772
0.015342
0.008755
0.003834
0.029790
0.050281
0.017139
0.019456
0.016592
0.003984
0.001609
0.006764
0.024158
0.025721
0.030771
0.023615
0.022360
0.018418
0.012330
0.004653
0.000232
-0.000459
0.000632
-0.000570
-0.001878
-0.000842
0.000393
0.000290
0.000233
0.000315
0.000133
0.001501
0.001617
0.005064
0.008546
0.011543
0.010826
0.007513
0.008012
0.007943
0.002893
0.001756
0.001790
0.002890
0.009151
0.014124
0.026588
0.026355
0.034813
0.027061
0.020639
0.013214
0.007416
0.003621
0.001656
0.002642
0.004390
0.005896
0.005139
0.006049
0.006446
0.006110
0.006836
0.008280
0.047645
0.035783
0.030273
0.032293
0.027828
0.024516
0.024785
0.018851
0.022529
0.010393
0.015169
0.014396
0.019902
0.017291
0.010078
0.005634
0.005221
0.004445
0.005547
0.008008
0.008000
0.007016
0.005574
0.004456
0.003423
0.002765
0.002412
0.019721
0.012634
0.016468
0.021877
0.035492
0.035008
0.071876
0.039858
0.021436
0.052081
0.038729
0.060254
0.024609
0.029912
0.028162
0.026378
0.020439
0.030532
0.034955
0.035093
0.047942
0.053397
0.047579
0.048521
0.030590
0.024402
0.018974
0.022209
0.030719
0.027245
0.047220
0.047864
0.048786
0.026154
0.026237
0.048485
0.032695
0.045448
0.025941
0.004007
0.005272
0.006910
0.012027
0.000135
0.000317
0.000478
0.001480
0.004244
0.007889
0.009192
0.011587
0.009772
0.007262
0.006571
0.004628
0.003012
0.001964
0.002207
0.003865
0.005105
0.006696
0.010636
0.012824
0.025916
0.028207
0.028979
0.025591
0.013135
0.008035
0.004832
0.023371
0.026303
0.024808
0.021652
0.015119
0.003057
0.000695
0.014815
0.002921
0.021691
0.018782
0.006541
0.003871
0.003564
0.003502
0.016338
0.033921
0.032532
0.025948
0.021297
0.015182
0.007165
0.002766
0.000305
-0.000383
-0.000830
0.012064
0.031209
0.005668
0.004390
0.005578
0.007414
0.008646
0.009582
0.010441
0.014041
0.032782
0.031141
0.026674
0.034841
0.027842
0.018767
0.019360
0.013350
0.018360
0.012446
0.017541
0.012979
0.010469
0.007705
0.006161
0.003669
0.003393
0.005190
0.008797
0.007134
0.000113
-0.000468
-0.000567
-0.000276
0.000206
0.017178
0.019489
0.030054
0.040003
0.035561
0.048250
0.025039
0.036316
0.044840
0.043999
0.031416
0.031636
0.020974
0.022000
0.022737
0.026458
0.042640
0.045725
0.020513
0.016404
0.053343
0.055160
0.029434
0.020921
0.023185
0.017972
0.028939
0.028630
0.025646
0.058402
0.058594
0.017731
0.024967
0.051212
0.034055
0.033063
0.009008
0.008741
0.013209
0.006692
0.035863
0.034576
0.017976
0.017770
0.016322
0.014292
0.012116
0.010774
0.010734
0.010426
0.009601
0.007426
0.005815
0.004350
0.003935
0.003879
0.008344
0.000237
0.000366
0.002672
0.007650
0.005940
0.004041
0.002505
0.001461
0.001501
0.001948
0.002553
0.003776
0.005060
0.006464
0.008226
0.011485
0.025297
0.031847
0.024908
0.019398
0.012704
0.013038
0.003929
0.008673
0.008469
0.004914
0.007942
0.000256
-0.000120
-0.000074
0.036564
0.042253
0.024270
0.019638
0.026826
0.013265
0.018927
0.020345
0.006546
0.004009
0.000273
0.000308
0.001849
0.018228
0.022554
0.008463
0.004981
0.007096
0.010944
0.036215
0.038955
0.021190
0.026084
0.016083
0.013019
0.007045
0.002368
0.000934
0.000382
0.000639
0.005289
0.013615
0.026314
0.026439
0.029295
0.048515
0.034691
0.022209
0.031469
0.031225
0.054589
0.026169
0.030607
0.021099
0.022458
0.018113
0.033184
0.034356
0.015910
0.024490
0.024955
0.017487
0.043268
0.030553
0.022362
0.020278
0.019486
0.021655
0.029862
0.025885
0.048210
0.058052
0.020468
0.023529
0.039163
0.032769
0.008825
0.006274
0.007065
0.006462
0.014097
0.006289
0.012523
0.005052
0.003964
0.002465
0.001861
0.001476
0.001372
0.002022
0.002487
0.003480
0.003871
0.005253
0.006589
0.009442
0.010197
0.013086
0.020147
0.022080
0.027573
0.024108
0.016207
0.011742
0.012296
0.013032
0.014134
0.014048
0.005960
0.013311
0.032355
0.030906
0.024125
0.022635
0.014236
0.017218
0.012379
0.004735
0.001907
0.002986
0.011983
0.011350
0.019841
0.025353
0.000168
0.000972
0.007751
0.010963
0.002531
0.024537
0.026642
0.014292
0.011083
0.009630
0.020241
0.031015
0.024288
0.020160
0.017163
0.008966
0.018839
0.025150
0.045364
0.048700
0.025922
0.032141
0.035899
0.066171
0.021153
0.027601
0.017727
0.024280
0.022922
0.020698
0.034557
0.021536
0.021111
0.017802
0.017234
0.050090
0.011009
0.035153
0.019421
0.019186
0.017932
0.029647
0.020346
0.067873
0.039083
0.029183
0.019579
0.035683
0.026254
0.024992
0.021865
0.019892
0.021854
0.024359
0.026000
0.020314
0.012935
0.009253
0.008546
0.007572
0.019099
0.010680
0.003922
0.003020
0.002280
0.002045
0.006784
0.007919
0.001292
0.001950
0.002761
0.003334
0.003993
0.005448
0.006516
0.009497
0.010146
0.013744
0.013084
0.015421
0.019298
0.024246
0.022360
0.025934
0.018724
0.022870
0.026411
0.018401
0.016489
0.001159
0.001877
0.026031
0.033478
0.032430
0.023942
0.033207
0.040806
0.066405
0.019279
0.023691
0.016751
0.025321
0.019887
0.037590
0.020584
0.006679
0.021167
0.016036
0.007099
0.016618
0.029996
0.026432
0.021463
0.017714
0.016562
0.019045
0.025631
0.046848
0.048987
0.034338
0.021792
0.024533
0.024475
0.021046
0.014482
0.013003
0.012076
0.010840
0.010391
0.010429
0.010390
0.012076
0.004779
0.004565
0.004870
0.006861
0.008378
0.015966
0.027856
0.026616
0.010757
0.017246
0.021489
0.018460
0.025849
0.020246
0.027917
0.021308
0.017726
0.020715
0.022228
0.022853
0.023292
0.025458
0.017965
0.014046
0.017986
0.018140
0.019531
0.023111
0.032857
0.026441
0.022641
0.022601
0.015047
0.007982
0.017196
0.004950
0.003596
0.009230
0.010639
0.008667
0.003999
0.030132
0.031779
0.006446
0.019044
0.007978
0.009206
0.012511
0.010403
0.010839
0.013558
0.020963
0.027202
0.020752
0.036131
0.021955
0.025995
0.038304
0.052274
0.020021
0.019713
0.016417
0.019278
0.018646
0.033901
0.023827
0.014438
0.010873
0.010380
0.005773
0.017092
0.044172
0.034154
0.015413
0.020681
0.014301
0.018261
0.032898
0.027112
0.047809
0.024559
0.015940
0.027010
0.022339
0.008415
0.021286
0.030452
0.028013
0.028744
0.028126
0.032797
0.017518
0.014790
0.015940
0.016528
0.018794
0.027004
0.037212
0.038667
0.017225
0.014780
0.017225
0.042010
0.058518
0.012178
0.028838
0.012686
0.014822
0.015798
0.036087
0.031207
0.044408
0.027476
0.023470
0.021150
0.040430
0.023884
0.021017
0.023703
0.005777
0.011700
0.029639
0.027954
0.023929
0.020037
0.014848
0.008237
0.002337
0.017728
0.002415
0.011009
0.026806
0.023493
0.015959
0.015917
0.015785
0.030258
0.017676
0.023042
0.017543
0.026275
0.020429
0.015523
0.015250
0.074202
0.023447
0.002418
0.014587
0.007769
0.024058
0.014935
0.017423
0.035203
0.026847
0.034892
0.043367
0.033462
0.025049
0.020082
0.022143
0.043896
0.021513
0.023740
0.009968
0.009190
0.010540
0.013038
0.018581
0.016136
0.015288
0.026680
0.007712
0.021866
0.010145
0.014163
0.014153
0.027647
0.014382
0.012445
0.016596
0.017226
0.021833
0.022285
0.013127
0.017438
0.011627
0.040108
0.017014
0.024932
0.014605
0.012648
0.019756
0.020618
0.019090
0.023642
0.040460
0.027672
0.029110
0.031263
-0.000634
-0.000026
0.000435
-0.000026
0.047566
0.024790
0.022957
0.040923
0.033456
0.009077
0.008711
0.009592
0.001761
0.003069
0.027003
0.016483
0.021702
0.014921
0.001128
0.007290
0.019080
0.025129
0.019036
0.026886
0.025402
0.000900
0.000694
0.007572
0.009710
SCALARS LE11_SP5(MPa) float 1
LOOKUP_TABLE default
0.454744
0.443696
0.364519
0.382711
0.081606
-0.136049
-0.211494
-0.395423
-0.285059
-0.364644
-0.385322
-0.300605
-0.198862
-0.093557
0.001236
0.050527
0.292364
0.236261
-0.081704
0.010677
-0.298987
0.005281
0.044355
-0.048288
-0.049399
-0.165619
0.243137
0.096249
0.146517
0.050704
-0.270398
0.286378
0.182817
0.217648
0.182199
0.240212
0.083033
-0.164486
-0.204578
-0.375823
-0.372062
-0.255401
-0.123015
-0.161813
-0.124794
-0.127787
-0.085180
0.040343
0.310980
0.070583
-0.021168
0.187916
0.210604
0.158025
0.149934
0.231226
0.153872
0.335257
0.152065
0.220422
0.362572
0.279711
0.028101
0.389252
0.350836
0.407790
0.280104
0.320200
-0.017266
-0.129210
0.190322
0.038685
-0.213948
0.273937
0.114580
0.167908
-0.089812
-0.259959
-0.224139
0.154410
0.243588
0.027257
-0.171682
-0.090764
0.351698
0.440025
0.383907
0.019363
0.087928
-0.131605
-0.290485
-0.257182
-0.072460
0.330087
0.272982
0.003219
0.051475
0.024067
-0.266087
0.014749
-0.276758
0.289632
0.229466
0.186007
0.384911
0.315449
0.408349
0.338666
0.256833
0.220001
0.243725
0.291352
0.326707
0.280542
0.323699
0.350979
0.368316
0.393484
0.446464
0.365640
0.028230
0.083376
-0.097551
-0.152525
-0.120654
-0.176228
-0.162397
-0.004813
0.001416
-0.213439
-0.408755
-0.225686
0.077688
0.125009
-0.266341
-0.355310
-0.211922
-0.200727
-0.314628
-0.303710
-0.333886
-0.230941
-0.087436
0.026814
0.071158
0.068457
0.141149
0.199171
0.349558
0.105530
0.121909
0.009653
-0.198549
-0.287074
-0.315469
0.389310
0.459111
0.410510
0.291907
-0.234909
0.304641
0.185081
-0.310457
-0.328235
-0.436989
-0.435600
-0.415913
-0.387927
-0.119486
0.181952
0.094046
0.271569
0.283926
0.012894
-0.146320
-0.206326
-0.190540
-0.211388
-0.004660
-0.095905
-0.080659
-0.052153
-0.104633
-0.018286
-0.099538
-0.096765
0.071465
0.110217
0.108675
0.187596
0.244683
0.136791
-0.331541
-0.365991
-0.479218
-0.419588
-0.407951
-0.287055
0.004659
0.055553
0.101847
0.079975
0.242588
0.339584
0.311323
0.174027
0.135720
0.043592
-0.071035
-0.188664
-0.042421
-0.001190
-0.055285
-0.035086
0.049848
-0.316814
0.200569
0.266445
0.274754
-0.015294
0.065546
0.049111
0.021575
0.119531
0.056505
0.045852
0.087764
0.282543
0.121001
-0.065589
-0.177995
-0.235561
-0.086410
0.181149
0.163556
0.070712
0.159959
0.340351
0.354709
0.322841
0.212864
-0.247099
-0.224486
-0.171441
-0.251881
-0.258468
-0.129362
0.224266
0.373298
0.098140
-0.142079
-0.232244
-0.405804
-0.113357
-0.037009
-0.195931
-0.116737
0.222069
0.279509
0.254186
0.234198
0.213709
0.185212
0.140998
0.175946
0.231361
0.299852
0.380754
0.433386
0.433552
0.451533
0.449039
0.294432
-0.086641
-0.119932
-0.168641
-0.222040
-0.110549
-0.212404
-0.292504
-0.278472
-0.304930
-0.286447
-0.173220
0.162206
0.385863
0.458600
0.267528
-0.220596
-0.279628
-0.305852
-0.265978
-0.332145
-0.357372
-0.205988
0.028065
-0.039695
-0.015645
0.092157
0.157423
0.255273
0.329140
0.158140
0.082331
0.012445
-0.123792
-0.320208
-0.142202
0.393802
0.419703
0.321524
0.056271
0.198655
0.143770
-0.297764
-0.384844
-0.414298
-0.422835
-0.434620
-0.445634
-0.240402
0.066626
0.116108
0.311514
0.283665
-0.019182
-0.205563
-0.232201
-0.295905
-0.210116
-0.065526
-0.177305
-0.102229
-0.163874
-0.073942
-0.068635
-0.240938
-0.248652
0.003230
0.042531
0.143914
0.268390
0.289226
0.161522
-0.201592
-0.513504
-0.406533
-0.404126
-0.151727
0.099706
0.131663
0.214377
0.286063
0.309905
0.229517
0.176685
0.309148
0.297702
0.267018
-0.154982
0.040480
-0.012904
-0.040697
0.203405
-0.032891
-0.073426
-0.115430
0.046584
-0.073817
0.195263
0.273819
0.208800
0.195084
0.071876
0.134241
0.365859
0.298583
0.042937
0.056398
-0.205742
-0.155419
0.166702
0.260521
0.306469
-0.370344
0.428988
0.411110
0.358365
-0.258011
-0.332257
-0.332392
-0.256598
-0.371555
-0.012586
-0.016313
-0.344404
0.330349
-0.004321
0.316843
-0.066922
-0.089437
0.035881
0.046030
0.097105
0.090545
0.101050
0.070061
0.043298
0.048130
0.129906
0.232973
0.339393
0.395197
0.424695
0.436854
0.447664
0.377792
0.355159
0.139096
0.087220
-0.148393
-0.104519
-0.239928
-0.210548
-0.314037
-0.286618
-0.261162
-0.159166
0.033214
0.274725
0.395292
0.431840
0.427712
0.183736
0.136206
-0.115029
-0.236645
-0.258885
-0.264168
-0.140151
0.040367
-0.108586
-0.065363
0.042145
0.110657
0.249885
0.409834
0.250483
0.162226
0.156997
-0.051323
-0.224084
-0.184958
0.089917
0.095812
0.443857
0.397770
0.334275
0.280227
0.139235
-0.056548
-0.100145
-0.303063
-0.351663
-0.273181
-0.263321
-0.155443
-0.155425
-0.089850
-0.171527
-0.296524
-0.202063
-0.285330
-0.433356
-0.284733
-0.140506
0.256538
-0.109689
-0.148304
0.279893
0.440020
0.459249
-0.435833
-0.343784
-0.200833
-0.048303
0.064116
-0.042878
-0.124638
-0.184953
-0.281042
-0.359779
-0.390122
-0.389439
-0.397096
-0.389485
-0.367022
-0.329332
-0.284888
-0.226550
-0.184251
-0.169038
-0.128788
-0.175510
-0.080857
-0.227947
-0.159836
-0.123141
-0.099090
-0.184819
-0.095790
-0.065640
-0.178240
-0.081138
-0.110801
-0.008856
-0.028622
-0.092052
0.011485
-0.026261
-0.070978
-0.011553
-0.022901
-0.111544
-0.065506
-0.026302
-0.036276
-0.000145
0.025024
-0.055469
-0.007833
-0.016826
-0.017839
0.071080
0.003709
0.055797
0.049837
-0.090371
0.017623
0.049442
-0.009138
0.031549
0.161106
0.052526
0.109410
0.036433
0.054078
0.037251
-0.012205
-0.012776
0.065712
0.047972
0.091788
0.070494
0.104491
0.027826
0.023795
0.050134
-0.023171
-0.013811
0.065521
0.017014
0.047866
0.057645
0.024400
0.006044
0.019502
0.066932
0.034601
0.038648
0.066115
-0.054230
-0.074720
-0.101507
0.000437
-0.016379
-0.094344
-0.009191
-0.098118
-0.100983
-0.044787
-0.134430
-0.076532
-0.063335
-0.037602
0.004201
0.012341
-0.045558
-0.027292
0.012943
-0.024067
-0.006244
0.021232
-0.031747
-0.004702
-0.022401
-0.049306
-0.058127
-0.045559
-0.090802
-0.005083
-0.075391
-0.065385
-0.059266
-0.028402
-0.030565
0.003189
0.004923
-0.077594
-0.014209
0.025535
0.003701
-0.053667
0.012546
-0.054827
-0.046128
-0.042182
-0.144268
-0.120930
-0.006525
0.062662
-0.051936
-0.008584
-0.095117
0.123003
-0.072267
0.029044
-0.024397
-0.052781
-0.076536
0.013170
-0.027305
0.178351
-0.017732
0.093834
-0.003851
-0.120150
-0.206065
-0.103105
0.012270
0.158206
0.342424
0.308947
0.323582
0.323013
0.305387
0.255498
0.400658
0.363500
0.299068
0.143661
-0.096798
-0.191156
-0.369656
-0.451987
-0.422862
-0.355120
-0.292403
-0.393981
-0.274632
0.346403
0.355207
-0.240633
-0.247180
-0.320553
-0.361604
-0.384331
-0.400848
-0.404961
-0.402276
-0.398348
-0.373855
-0.327866
-0.294004
-0.257659
-0.235037
-0.179053
-0.132641
-0.343225
-0.344549
-0.413580
-0.451758
-0.449967
-0.297716
0.056984
-0.109399
-0.175196
0.099615
-0.254730
-0.242904
-0.338586
0.376770
-0.244483
-0.183581
-0.002338
-0.126354
0.087948
-0.218710
-0.196948
-0.178996
-0.157642
-0.187353
-0.160667
-0.146385
-0.169583
-0.125286
-0.139235
-0.097593
-0.106287
-0.098230
-0.082167
-0.088586
-0.126149
-0.108950
-0.099054
-0.117427
-0.108148
-0.090628
-0.074780
-0.115785
-0.028111
-0.069208
-0.093317
-0.035903
-0.029520
0.025831
0.006263
0.074381
0.096196
-0.012954
-0.069387
-0.043404
-0.045632
-0.006688
-0.069603
0.075264
0.037955
-0.014592
0.018489
0.047414
-0.023709
-0.009598
0.006132
0.027606
0.024337
-0.043794
-0.032927
-0.001604
-0.000916
-0.041132
-0.007212
0.020845
0.002633
-0.045834
-0.006418
-0.034349
-0.067331
-0.066281
-0.087023
-0.061377
-0.100663
-0.103435
-0.059224
-0.104520
-0.059145
-0.065045
-0.026937
-0.051685
-0.083644
-0.103406
-0.092935
-0.175133
-0.091378
-0.070494
-0.097895
-0.134446
-0.149491
-0.211091
-0.078805
-0.082174
-0.141427
-0.113632
-0.131664
-0.130476
-0.119669
-0.120179
-0.084996
-0.089761
-0.089907
-0.061268
-0.108767
-0.112445
-0.082408
-0.078113
-0.094607
-0.060862
-0.089982
-0.121924
-0.024668
-0.039546
-0.078003
-0.001393
-0.032763
-0.064919
-0.048530
-0.081166
-0.046440
-0.032798
-0.139163
-0.107969
-0.115419
-0.126092
0.072248
-0.042278
0.287196
-0.198044
0.257179
0.007191
0.070835
-0.003903
-0.033804
-0.065402
-0.055452
-0.132433
-0.175575
-0.077572
-0.071858
-0.014505
0.099733
0.344344
0.393553
0.209527
0.338895
0.318267
0.411331
-0.406144
-0.364373
-0.401033
-0.407388
-0.361061
-0.181402
-0.032990
-0.115351
-0.093392
-0.071533
-0.058464
-0.154253
-0.182012
0.219000
0.248632
0.347430
0.373234
0.408573
0.313606
0.333409
0.275345
0.107521
-0.114220
-0.500999
-0.498620
-0.372745
-0.412488
-0.234626
-0.212870
-0.227199
-0.197101
-0.205477
-0.174976
-0.184767
-0.188487
-0.164696
-0.165439
-0.156467
-0.146048
-0.127255
-0.123320
-0.140992
-0.140109
-0.119578
-0.114764
-0.174582
-0.151328
-0.119306
-0.072927
-0.120455
-0.036213
-0.063067
-0.086588
-0.010193
0.013890
0.039833
0.044667
0.091455
0.067532
0.011108
-0.052037
-0.070308
-0.080949
-0.018202
-0.061639
0.032782
-0.004722
-0.017792
0.036854
-0.057315
0.003765
-0.002513
-0.030421
-0.004070
0.005593
-0.059468
0.023535
-0.016941
-0.001400
-0.038161
-0.036901
-0.059889
-0.044277
-0.061706
-0.059201
-0.054990
-0.074176
-0.081715
-0.108098
-0.073211
-0.061878
-0.061330
-0.082851
-0.100747
-0.078064
-0.029391
-0.067224
-0.077456
-0.082378
-0.153722
-0.085929
-0.167040
-0.160971
-0.112546
-0.126893
-0.122042
-0.127823
-0.124446
-0.092910
-0.110659
-0.150837
-0.135501
-0.128087
-0.166930
-0.167217
-0.120474
-0.102446
-0.111253
-0.078403
-0.083747
-0.103097
-0.115590
-0.098223
-0.075075
-0.136382
-0.032165
-0.092884
-0.137240
-0.016499
-0.100649
-0.075748
-0.035711
-0.130083
-0.110431
-0.096171
-0.134422
-0.058062
-0.162293
-0.187941
-0.173193
-0.151018
-0.143346
-0.119250
-0.027833
-0.004820
0.287505
-0.068322
0.219921
0.168977
0.158237
0.047072
-0.017488
-0.051698
0.070613
0.133962
-0.017611
0.149133
0.071026
0.321764
0.162692
0.221848
0.313275
0.406611
-0.286973
-0.314812
-0.345135
-0.369916
-0.374323
-0.380144
-0.385675
-0.381486
-0.362628
-0.325071
-0.280371
-0.253683
-0.243040
-0.028474
-0.055182
-0.184005
-0.212795
0.387319
0.309311
0.191381
0.321281
0.333862
0.446646
0.449511
0.462713
0.384017
0.080987
-0.070471
0.226924
0.013087
-0.230633
-0.310979
-0.314528
-0.282028
-0.174048
-0.057932
0.153665
0.118570
0.313253
0.249292
-0.061747
-0.231857
-0.270843
-0.264430
-0.155194
-0.029431
-0.157664
-0.171340
-0.222790
-0.236141
-0.294421
-0.090992
-0.202500
-0.200369
-0.091961
0.217382
0.352352
0.163798
-0.193046
-0.323685
-0.268564
-0.254053
-0.470305
-0.494929
-0.156981
0.004696
-0.072048
0.036187
0.247495
0.015736
0.397638
0.358632
0.335872
0.276069
0.150062
0.382400
0.224722
0.188654
0.235918
0.129913
0.419561
0.117104
-0.231453
-0.173282
-0.199048
-0.468121
0.276795
0.191576
0.347986
0.245215
0.279929
0.361728
0.412522
0.336465
0.096978
-0.117848
0.050151
-0.067404
-0.221139
-0.187526
-0.070176
0.194605
0.401662
0.389855
-0.147220
0.048866
-0.087128
-0.281019
0.413564
0.400645
0.423939
0.377305
0.230498
0.088334
-0.022492
-0.138053
-0.208395
-0.321237
-0.316503
-0.199473
-0.257248
-0.394087
-0.116658
-0.027653
0.115326
0.012385
-0.106708
-0.018648
0.247927
0.195058
-0.062783
-0.053341
0.036923
-0.027233
0.036719
0.008990
0.016946
-0.010296
-0.019181
0.012263
0.119426
0.252817
0.347143
0.382944
0.400434
0.406393
0.383720
0.358917
0.187401
0.106830
0.004151
-0.095977
-0.183896
-0.190169
-0.301883
-0.292075
-0.292271
-0.217157
-0.060456
0.076382
0.242218
0.395305
0.430728
0.370160
0.210760
0.148302
-0.018891
-0.130496
-0.173006
-0.205131
-0.065071
0.104337
-0.199010
-0.156917
-0.110203
0.023352
0.207330
0.298657
0.285118
0.178618
0.125747
0.042702
-0.064992
-0.050083
0.055766
0.064261
0.056651
0.170534
-0.229763
0.235497
0.380305
0.294642
0.336975
0.341894
0.352451
0.410025
0.442113
0.366931
0.259120
0.116758
0.416371
-0.031855
-0.229181
-0.327408
-0.324724
-0.290422
-0.214556
-0.148011
-0.016048
0.245253
0.268130
0.354237
0.217056
-0.075963
-0.216319
-0.258579
-0.221052
-0.176637
-0.159049
-0.268674
-0.241403
-0.343517
-0.241693
-0.283728
-0.294053
-0.211460
0.392808
0.184765
-0.133957
-0.262594
-0.258377
-0.123726
-0.094988
0.093359
0.279323
0.250980
0.317482
0.142062
0.006823
0.220228
0.442925
0.431207
0.365700
0.256055
0.254128
0.211595
0.211098
0.201886
0.253100
0.273276
0.065082
-0.339282
-0.259095
-0.409911
0.041880
0.187513
0.201490
0.284791
0.225967
0.322338
0.420656
0.326704
0.209895
0.085905
0.034889
0.055384
0.002866
-0.139709
-0.173104
-0.128146
0.008810
0.262040
0.339380
0.289320
0.032416
0.006869
-0.089861
-0.030091
-0.054893
-0.050790
0.343110
0.417400
0.353310
0.373298
0.291099
0.191099
0.089120
0.027554
-0.040877
-0.118167
-0.218711
-0.271355
-0.268233
-0.135109
-0.057580
0.007631
-0.022673
-0.131987
0.290980
0.224329
0.213599
0.103421
-0.221097
0.079281
0.163411
0.070197
0.050440
0.243984
0.328680
0.266560
0.189714
0.231443
0.266088
0.267876
0.341235
0.307630
0.029310
-0.232524
-0.455478
-0.462853
-0.355093
-0.376707
-0.338708
-0.358734
-0.366785
-0.346598
-0.258162
-0.047993
-0.085995
-0.110638
-0.122482
-0.136446
-0.197222
-0.263888
-0.251712
-0.221081
-0.203892
-0.184408
-0.172701
-0.187817
-0.178519
-0.177529
-0.178135
-0.152637
-0.151980
-0.141569
-0.130036
-0.146224
-0.141937
-0.123311
-0.114970
-0.131698
-0.165257
-0.159648
-0.136168
-0.073489
-0.035238
-0.094726
-0.034505
0.007348
0.024457
0.025084
0.057167
0.043919
-0.067317
-0.071021
-0.105845
-0.109521
-0.070598
-0.028944
-0.005419
-0.010282
-0.025984
0.020009
-0.073301
-0.011920
-0.041748
-0.018000
-0.039722
-0.023810
-0.055503
-0.045869
-0.119479
-0.042555
-0.048647
-0.033530
-0.087554
-0.051871
-0.075086
-0.085737
-0.094627
-0.113090
-0.119982
-0.155662
-0.160124
-0.122891
-0.107130
-0.105620
-0.071908
-0.093747
-0.046814
-0.066268
-0.032843
-0.078876
-0.136100
-0.132424
-0.205798
-0.177486
-0.136372
-0.137033
-0.163654
-0.159258
-0.158764
-0.132200
-0.128067
-0.143874
-0.160112
-0.124267
-0.173191
-0.145151
-0.121285
-0.138813
-0.173259
-0.170344
-0.155278
-0.164109
-0.116592
-0.106930
-0.088609
-0.147198
-0.175051
-0.216241
-0.107016
-0.171911
-0.067242
-0.044234
-0.064440
-0.111310
-0.052248
-0.052856
-0.111299
-0.084220
-0.171076
-0.202055
-0.203479
-0.191444
-0.130141
-0.083791
0.124109
0.294565
0.329530
0.252447
-0.053172
-0.172306
-0.313672
-0.325237
-0.343765
-0.366333
-0.366032
-0.368472
-0.366227
-0.343511
-0.298559
-0.276032
-0.259807
-0.061162
0.002505
-0.016717
0.000235
-0.025787
-0.026533
-0.068557
-0.063474
-0.024381
0.104177
0.228816
0.328012
0.360977
0.346812
0.354076
0.308595
0.155199
0.033588
-0.087699
-0.127222
-0.176806
-0.268728
-0.237365
-0.175547
-0.015582
0.122861
0.256857
0.373019
0.410744
0.354405
0.210465
0.136474
0.026073
-0.028226
-0.099817
-0.106848
0.067543
0.289934
0.051965
-0.017356
0.041142
0.165842
0.311713
0.038410
-0.064174
0.102177
0.211020
0.219064
0.290702
0.171925
-0.134417
-0.373232
-0.450851
-0.390542
-0.416135
-0.333526
-0.331212
-0.348603
-0.321930
-0.242146
-0.133329
-0.105069
-0.107845
-0.148164
-0.202459
-0.214386
-0.262694
0.209100
0.291571
0.207125
-0.112358
-0.029307
0.235139
0.069642
-0.047547
-0.070031
-0.092736
-0.086435
-0.070904
-0.098878
-0.088392
-0.058329
0.043452
0.182566
0.266540
0.304750
0.307633
0.215478
0.151658
0.042762
-0.053898
-0.141227
-0.195749
-0.223590
-0.215272
-0.162104
-0.089507
0.058393
0.180187
0.370345
0.331579
0.173545
0.137300
0.075851
0.002292
-0.073190
-0.092347
0.029185
0.160433
-0.009515
0.044691
0.208759
0.385752
0.264404
0.035125
0.140350
0.298944
0.198843
0.139086
0.095619
-0.003337
-0.010309
-0.080889
-0.080973
-0.061059
0.075908
0.014067
0.168375
-0.041492
0.254772
0.314260
0.341473
0.358022
-0.298360
-0.317421
-0.335329
-0.344703
-0.350308
-0.350098
-0.315053
-0.288217
-0.261128
-0.223542
-0.212684
-0.187946
-0.178705
-0.166868
-0.170132
-0.156752
-0.163607
-0.149632
-0.113012
-0.177525
-0.095068
-0.114843
-0.131489
-0.081872
-0.111319
-0.133805
-0.170198
-0.161859
-0.138433
-0.125337
-0.108457
-0.061490
0.003526
0.014535
-0.009856
0.008497
0.036714
-0.049127
-0.147089
-0.163399
-0.101509
-0.099676
-0.033579
-0.021303
-0.034005
-0.029773
0.006942
-0.045397
-0.028247
-0.061462
-0.046425
-0.051499
-0.034348
-0.063658
-0.058303
-0.076563
-0.054571
-0.060761
-0.071780
-0.108149
-0.104598
-0.106190
-0.100767
-0.094126
-0.101049
-0.084089
-0.133471
-0.152659
-0.134710
-0.111284
-0.121183
-0.106965
-0.147503
-0.111203
-0.102012
-0.050181
-0.134057
-0.157506
-0.175593
-0.198706
-0.211716
-0.162405
-0.183004
-0.156207
-0.157889
-0.207390
-0.150839
-0.138050
-0.156829
-0.173086
-0.159196
-0.159601
-0.195788
-0.160941
-0.192024
-0.157869
-0.147550
-0.124705
-0.153312
-0.157811
-0.093005
-0.132938
-0.119388
-0.157983
-0.125928
-0.115245
-0.109888
-0.137902
-0.053328
-0.076756
-0.006574
-0.085236
-0.087664
-0.073776
-0.131338
-0.126827
-0.189912
-0.190108
-0.224324
-0.201533
-0.129976
0.032353
0.309955
0.316914
0.453139
0.397800
0.036161
0.093317
-0.333877
-0.254522
-0.129581
0.321773
0.130369
-0.107621
-0.221618
-0.219365
-0.158819
-0.036720
0.015959
0.179140
0.337754
0.316535
0.269312
0.269052
0.156581
0.099043
0.192337
0.330722
0.341601
0.295008
0.331303
0.320681
0.290395
0.246177
0.062487
-0.143445
-0.154281
0.032182
0.117522
0.045936
0.274170
0.287858
0.306792
0.333870
0.406691
0.313635
0.403587
0.361027
0.350107
0.346525
0.068421
0.096481
0.040102
-0.101427
0.079316
0.311571
0.277231
0.346535
0.323195
0.223974
0.064615
0.078278
0.009687
-0.109869
-0.076553
-0.199604
-0.134933
0.027054
0.270392
0.284943
0.217965
0.030783
-0.005078
-0.007962
-0.114922
0.041821
-0.035382
0.023964
0.150199
0.356588
0.371298
0.304322
0.267391
0.285485
0.252036
0.146197
0.058084
-0.005542
-0.088917
-0.156087
-0.198095
-0.233493
-0.230082
-0.172408
-0.012138
0.049192
0.129325
0.156983
0.239937
0.228100
-0.132104
-0.468554
-0.429128
-0.411772
-0.367952
-0.333933
-0.297371
0.216902
-0.212481
-0.160355
-0.128483
-0.120117
-0.030804
0.080922
0.221037
0.253618
0.323527
0.368916
0.321066
0.296975
0.193920
0.152526
0.108285
-0.008439
-0.055714
-0.051514
0.008019
0.148331
0.163380
0.115627
0.061726
0.031481
0.032777
0.112747
0.259444
0.185075
0.133198
0.157913
0.130594
0.049518
-0.012687
-0.053222
-0.077288
-0.073649
-0.059474
-0.035023
0.141304
0.266319
0.083237
-0.115625
0.188117
0.339080
0.266606
0.300014
0.177618
0.073544
-0.003495
-0.216757
-0.037789
0.079470
0.291552
0.276704
0.327253
0.253881
0.393103
0.372435
0.410926
0.398855
0.418142
0.429073
0.435321
0.324289
0.378889
0.309746
0.309935
-0.260521
-0.322892
-0.332004
-0.280608
-0.232339
-0.130919
0.049208
0.204845
0.241875
0.314633
0.240685
-0.008694
-0.159944
-0.201336
-0.217582
-0.225069
-0.264586
-0.382093
-0.313571
-0.310284
-0.352518
-0.158000
-0.120188
-0.112521
-0.158106
-0.219677
-0.273340
-0.234869
-0.257757
-0.280857
-0.315670
-0.334553
-0.334901
-0.332189
-0.305103
-0.273662
-0.242034
-0.178664
-0.184845
-0.118222
-0.116732
-0.106380
-0.127538
-0.082013
-0.103800
-0.120733
-0.142535
-0.135628
-0.146075
-0.041048
0.023258
-0.087604
-0.113965
-0.177416
-0.177586
-0.150749
-0.140562
-0.118109
-0.061774
-0.012359
-0.025442
-0.080640
0.008249
0.011146
-0.259695
-0.242513
-0.232389
-0.164974
-0.120714
-0.061310
-0.044760
-0.058009
-0.051361
-0.043041
-0.049279
-0.037324
-0.083072
-0.077412
-0.067995
-0.041808
-0.103496
-0.079058
-0.095780
-0.087482
-0.100303
-0.064671
-0.130332
-0.085754
-0.057285
-0.113397
-0.128863
-0.119111
-0.126632
-0.155653
-0.181718
-0.162457
-0.148642
-0.154704
-0.183500
-0.194955
-0.161501
-0.050850
-0.134227
-0.238265
-0.252683
-0.246611
-0.226080
-0.217555
-0.205884
-0.210182
-0.197348
-0.181800
-0.188173
-0.170530
-0.183390
-0.189242
-0.185304
-0.204437
-0.217916
-0.190279
-0.195996
-0.162599
-0.192565
-0.196814
-0.175678
-0.145813
-0.172767
-0.155810
-0.125369
-0.113350
-0.146062
-0.147252
-0.129649
-0.147782
-0.111836
-0.098220
-0.043294
-0.085076
-0.075522
-0.100775
-0.119309
-0.116194
-0.172821
-0.174869
-0.215794
-0.260533
-0.206316
0.003267
0.261306
0.374219
0.402542
0.318332
-0.189231
-0.191145
0.392923
0.421360
0.419796
0.434541
0.427528
0.267044
0.305870
0.313176
0.192075
0.145969
0.175857
0.315038
0.378306
0.197047
0.260593
-0.100662
-0.131962
-0.180607
-0.176870
-0.146757
0.007157
0.116273
0.202067
0.225990
0.268570
0.358334
0.376257
0.322696
0.222735
0.240753
0.056227
0.092705
0.007960
-0.028532
-0.014202
0.011503
0.127988
0.070138
0.123871
0.109663
0.054110
0.024094
0.071657
0.154651
0.211373
0.138220
0.125613
0.083732
0.058361
0.006652
-0.030966
-0.080293
0.017260
-0.010203
0.298721
0.399298
0.285629
0.330423
0.251123
-0.276609
-0.264046
-0.207720
-0.195549
-0.095908
0.055839
0.187668
0.254786
0.292946
0.142955
-0.068982
-0.190859
-0.248337
-0.286631
-0.285703
-0.287049
-0.362948
-0.317674
-0.319146
-0.296723
0.253021
-0.195321
-0.419361
-0.358852
-0.342069
-0.320673
-0.256222
-0.297653
-0.205806
-0.257817
-0.194123
-0.156931
-0.154586
-0.172270
-0.217820
-0.269064
-0.318235
-0.299477
-0.256016
-0.107959
0.027026
0.250103
0.269800
0.169153
0.035715
-0.030265
-0.011612
0.010016
-0.080716
0.045965
0.006007
0.060118
0.153982
0.238491
0.316647
0.278614
0.269299
0.252579
0.311908
0.274464
0.221631
0.121420
0.002355
-0.045183
-0.101839
-0.101255
-0.169710
-0.230477
-0.298758
-0.338097
-0.336457
-0.319025
-0.288432
-0.247811
-0.192007
-0.197936
-0.086389
-0.073919
0.025821
-0.038409
0.000753
-0.111238
-0.086870
-0.082276
-0.125690
0.068820
0.047598
-0.029422
-0.102031
-0.161794
-0.174982
-0.180493
-0.170105
-0.115093
-0.073829
-0.059331
-0.023880
0.037451
-0.008790
-0.328889
-0.385501
-0.348318
-0.310548
-0.195840
-0.153687
-0.118476
-0.115200
-0.109933
-0.080036
-0.103909
-0.073984
-0.066388
-0.083781
-0.089156
-0.072660
-0.086725
-0.116468
-0.083832
-0.046026
-0.122289
-0.074517
-0.084483
-0.120469
-0.115463
-0.118715
-0.138489
-0.154466
-0.159295
-0.170306
-0.198787
-0.186455
-0.178478
-0.195108
-0.215539
-0.237618
-0.248543
-0.246963
-0.149434
-0.221255
-0.357968
-0.336281
-0.315903
-0.287197
-0.260884
-0.251484
-0.247935
-0.229223
-0.262240
-0.217088
-0.225267
-0.216506
-0.196991
-0.185944
-0.197120
-0.211958
-0.212581
-0.200553
-0.213360
-0.213227
-0.225548
-0.234680
-0.208909
-0.191990
-0.177763
-0.183953
-0.171821
-0.163677
-0.141685
-0.160361
-0.123881
-0.142621
-0.178891
-0.128757
-0.096657
-0.095801
-0.063746
-0.069164
-0.060605
-0.102922
-0.078223
-0.126536
-0.120332
-0.168523
-0.186706
-0.225926
-0.238989
-0.210060
-0.064788
0.193455
0.322340
0.413299
-0.085253
-0.112099
-0.089104
-0.099266
-0.116608
-0.055876
0.068550
0.116518
0.200384
0.229434
0.297535
0.274644
0.328553
0.253493
0.204082
0.113662
0.089306
0.064272
-0.018240
-0.009871
-0.014307
0.017806
0.099571
0.106240
0.081380
0.053293
0.068308
0.074185
0.041282
0.071085
0.179102
0.234373
0.193849
0.160107
0.126282
0.095505
0.050995
0.023499
-0.024631
-0.031452
-0.015303
-0.061326
0.109286
-0.078702
0.183977
0.106297
0.248967
0.240930
0.167933
0.084816
0.199474
0.170191
0.193480
0.166041
-0.162471
0.011985
0.080087
0.208729
0.266182
0.123848
0.040048
0.088752
0.074395
0.085639
-0.035102
0.054277
0.049711
-0.072376
-0.036567
-0.034080
-0.060037
-0.075356
-0.072405
-0.004129
0.122138
0.220853
0.257759
0.252598
0.178738
0.124655
0.014957
-0.063313
-0.095286
-0.104873
-0.133959
-0.153683
0.053588
0.196000
0.205325
0.250087
0.219107
0.184397
0.103948
0.033136
0.024251
-0.089380
-0.099656
-0.203710
-0.132227
-0.056560
0.073056
0.236531
0.115710
-0.100765
-0.201397
-0.191903
-0.110734
0.011683
0.102654
0.100141
0.230213
0.244028
-0.109606
-0.036874
-0.003399
0.046356
0.046198
0.030170
0.399756
0.374032
0.428389
0.425901
-0.281862
-0.191548
-0.211281
-0.187306
-0.160298
-0.175100
-0.208607
-0.247950
-0.298875
-0.315975
-0.325440
-0.038907
0.202593
0.234382
0.130086
0.034050
-0.019640
-0.018768
-0.017113
0.001993
0.118873
0.043118
0.086041
0.070477
0.087154
0.187184
0.257302
0.294841
0.221464
0.262757
0.270862
0.388363
0.332707
0.265274
0.266659
0.282283
0.168086
0.097524
0.109163
0.094328
0.024582
0.242809
-0.322861
-0.309386
-0.249862
-0.185101
-0.138482
0.106201
-0.124502
-0.189891
-0.114006
-0.148429
0.171643
0.066327
-0.045461
-0.122695
-0.147991
-0.166867
-0.178072
-0.165344
-0.137885
-0.084630
-0.021457
0.129795
0.065865
-0.270759
-0.363330
-0.391388
-0.372572
-0.216654
-0.218191
-0.166881
-0.118726
-0.092312
-0.088847
-0.078114
-0.101868
-0.119313
-0.096042
-0.081578
-0.103488
-0.080782
-0.071948
-0.092308
-0.068773
-0.097263
-0.100403
-0.056115
-0.108881
-0.124360
-0.149981
-0.127371
-0.166451
-0.168564
-0.190608
-0.177065
-0.205082
-0.198216
-0.214194
-0.244823
-0.281252
-0.299669
-0.324138
-0.349835
-0.321661
-0.364532
-0.475269
-0.407992
-0.389407
-0.351985
-0.321912
-0.289126
-0.269001
-0.248354
-0.026646
-0.319965
-0.308434
-0.251060
-0.198472
-0.110400
0.082831
0.192760
-0.066597
-0.197525
-0.068183
-0.110288
0.037482
-0.018540
-0.091279
-0.159956
-0.194374
-0.204145
-0.200847
-0.129250
-0.188626
-0.067539
0.120688
-0.191253
-0.143918
-0.260096
-0.362665
-0.366977
-0.314393
-0.236935
-0.180088
-0.129244
-0.108142
-0.084024
-0.083989
-0.118924
-0.145899
-0.128582
-0.061436
-0.079109
-0.110454
-0.125868
-0.093215
-0.125733
-0.107895
-0.144432
-0.108217
-0.108934
-0.099330
-0.126225
-0.126424
-0.157205
-0.201978
-0.180890
-0.204797
-0.204730
-0.193188
-0.213844
-0.277422
-0.309809
-0.319914
-0.359335
-0.354001
-0.374034
-0.285743
-0.332262
-0.403350
-0.395478
-0.374034
-0.347962
-0.316641
-0.273294
-0.260012
-0.243487
-0.214768
-0.213752
-0.267370
-0.228918
-0.196139
-0.082668
-0.058052
0.012711
0.180140
0.098451
-0.078816
-0.175172
-0.134500
-0.115543
-0.081973
-0.023454
0.083900
0.108651
0.210127
0.227404
0.331551
0.302058
0.258848
0.172815
0.185204
0.209814
0.276959
0.342511
0.289743
0.245766
0.262520
0.305356
0.289017
0.288755
0.224306
-0.091005
-0.180964
-0.023946
-0.119405
-0.153170
0.166803
0.192684
0.027920
-0.025082
-0.084627
-0.081547
-0.127743
-0.122892
-0.170775
-0.206210
-0.108544
-0.030850
-0.012948
0.087229
0.037466
-0.073892
-0.176579
0.315911
0.275430
0.360729
-0.161014
-0.193004
-0.243623
-0.204400
-0.251181
-0.204671
-0.155211
-0.151635
-0.060516
0.068510
0.145360
0.240648
0.223092
0.061091
-0.103649
-0.197274
-0.239720
-0.265521
-0.302350
-0.336503
-0.311144
-0.284370
-0.262304
-0.237118
0.140799
0.192039
-0.178148
-0.054075
-0.124069
-0.176782
-0.166367
-0.196113
-0.220554
-0.227080
-0.250390
-0.230910
-0.125777
-0.164892
-0.072974
0.066932
0.285021
-0.218827
-0.280879
-0.244481
-0.300231
-0.262440
-0.233743
-0.165688
-0.113797
-0.099906
-0.075073
-0.073197
-0.056758
-0.089650
-0.098621
-0.065387
-0.066957
-0.114726
-0.101588
-0.103136
-0.117474
-0.081141
-0.062434
-0.082806
-0.112267
-0.122054
-0.148266
-0.154292
-0.141376
-0.191673
-0.175719
-0.192235
-0.213902
-0.205950
-0.242857
-0.278632
-0.320283
-0.323982
-0.361638
-0.344578
-0.231795
-0.045725
-0.397420
-0.420741
-0.424423
-0.408908
-0.379962
-0.325549
-0.294646
-0.271833
-0.254237
-0.241238
-0.227858
-0.208363
-0.205345
-0.212350
-0.223117
-0.234804
-0.215662
-0.212322
-0.228091
-0.225907
-0.206677
-0.237085
-0.221381
-0.188957
-0.203112
-0.183883
-0.178787
-0.170035
-0.182765
-0.147401
-0.176868
-0.170115
-0.148808
-0.129140
-0.129338
-0.074987
-0.125547
-0.094988
-0.069985
-0.092341
-0.109014
-0.132164
-0.128027
-0.176842
-0.216946
-0.204381
-0.165785
-0.055286
0.156257
-0.336990
-0.303470
0.314963
0.267386
0.184897
0.123680
0.070948
0.009195
0.005422
-0.110355
-0.020331
0.148770
0.108766
0.014634
-0.008897
-0.016784
-0.043743
0.013286
0.044228
0.037374
0.091194
0.079358
0.081643
0.068323
0.176448
0.258251
0.173291
0.236889
0.239175
0.272857
0.268001
0.225322
0.111867
0.035221
-0.009239
-0.116841
-0.078057
-0.102022
-0.112379
-0.129532
0.166746
0.068794
0.002018
-0.004642
-0.005019
0.001879
-0.029053
0.020950
-0.060389
-0.008973
0.063487
0.158207
0.207660
0.194806
0.126122
0.054046
0.000521
-0.215339
-0.230723
-0.235090
-0.225109
-0.240094
-0.231696
-0.234486
-0.238481
-0.223430
-0.227415
-0.259336
-0.246725
-0.206081
-0.190598
-0.173549
-0.197477
-0.176946
-0.201705
-0.169606
-0.189754
-0.175592
-0.143147
-0.145049
-0.129648
-0.101396
-0.097833
-0.083141
-0.076245
-0.063507
-0.093409
-0.102310
-0.090994
-0.134714
-0.166241
-0.165010
-0.130222
-0.046293
0.184242
-0.242033
-0.223559
-0.179036
-0.156676
-0.108075
0.025676
-0.033266
0.109665
0.054779
-0.078544
-0.143862
-0.142342
-0.057084
-0.036108
0.006971
0.091957
0.145595
0.219821
0.260324
0.297013
0.310358
0.304213
0.250075
0.203459
0.213807
0.289259
0.207578
0.199767
0.185586
0.156911
0.128832
0.084377
0.037802
0.004160
-0.007773
-0.014018
-0.000683
0.050634
0.017336
0.060385
0.018474
0.299559
0.129383
-0.154806
-0.064775
-0.120910
-0.171283
0.015055
0.025739
-0.033949
-0.119013
-0.142122
-0.194854
-0.200109
-0.192362
-0.117757
-0.161214
-0.138566
-0.187630
-0.224225
-0.248708
-0.161258
-0.144558
-0.174149
-0.207572
-0.233489
-0.282729
-0.300543
-0.281007
-0.225260
-0.183106
-0.102747
0.328620
0.284998
0.272569
0.250807
0.182342
0.097041
0.051565
0.012651
-0.044077
-0.058839
-0.056013
0.078993
0.051001
0.080197
0.155688
0.122239
0.037516
0.055942
0.014359
0.060213
0.025055
0.056786
0.085962
0.034569
0.167910
0.044161
-0.019413
-0.042214
-0.081579
-0.047766
-0.090428
-0.072794
0.105880
0.124935
0.081543
0.109551
0.122521
0.107137
0.257032
0.239114
0.198279
0.267362
0.272590
0.199346
0.167152
0.108721
-0.045862
-0.025249
-0.122509
-0.129449
-0.104865
-0.100658
-0.051042
0.141667
0.151691
0.154217
0.132159
0.130588
0.088599
0.092306
0.047665
0.009611
-0.013869
-0.017757
-0.012103
0.087345
0.138933
0.148897
0.082255
0.134157
0.157658
0.286365
0.024301
-0.178552
-0.027411
0.237336
0.211008
-0.045088
-0.004643
0.040402
0.100003
0.145258
0.163476
0.095686
0.048748
-0.034658
-0.094041
-0.099801
-0.055982
-0.049832
0.010975
0.066923
0.133338
0.170711
0.212711
0.247203
0.302470
0.244346
0.259075
0.240046
0.127265
0.107963
-0.001434
0.036162
-0.015926
-0.013008
0.017096
0.060253
0.056664
0.021494
0.078368
0.072473
0.081259
0.070337
0.057355
-0.137573
-0.119189
-0.118052
-0.045092
0.051126
0.109274
0.168021
0.137327
0.035303
-0.096179
-0.246987
-0.268458
-0.297295
-0.307508
-0.300530
-0.288537
-0.125265
-0.076610
0.247691
0.294362
0.276683
0.293033
0.304800
0.258628
0.219088
0.238166
0.119844
0.071374
-0.001901
-0.053111
-0.040939
-0.031965
-0.005666
0.012305
0.042862
0.091733
0.120805
0.119515
0.106384
0.056991
-0.031013
-0.027742
-0.024230
-0.030782
-0.053290
0.053362
0.006707
0.039925
0.132287
0.185825
0.149971
0.211509
0.304762
0.302600
0.251178
0.247586
0.196439
0.100806
0.060972
0.045534
0.008016
0.057452
0.030811
0.078955
0.077418
0.082995
-0.006669
0.081908
0.049041
0.089460
0.070126
0.071979
-0.126362
-0.086769
-0.132525
-0.164621
-0.094663
-0.056049
-0.078180
-0.194083
-0.260396
-0.201946
-0.152338
-0.155099
-0.136567
-0.060637
0.099388
0.073999
0.043704
-0.074833
-0.115303
-0.074146
-0.112436
-0.021420
0.061754
0.082184
0.149863
0.197023
0.237585
0.262252
0.265348
0.270117
0.264362
0.257667
0.237781
0.277382
0.011790
-0.010344
-0.008538
0.045919
0.064589
0.167378
0.045558
-0.005518
-0.094780
-0.099000
-0.047958
-0.042576
-0.007924
-0.189287
0.064238
0.135324
0.084755
0.082161
-0.114861
-0.176680
0.269950
0.261198
0.226241
0.261627
0.236816
0.217444
0.156574
0.084700
0.071487
-0.025693
-0.023581
-0.041901
-0.034361
-0.048204
-0.040881
-0.036340
-0.234993
-0.239144
-0.241859
-0.242524
-0.235263
-0.254147
-0.236939
-0.253979
-0.227795
-0.230920
-0.234184
-0.218894
-0.211107
-0.177467
-0.194692
-0.222332
-0.217084
-0.219974
-0.223026
-0.166102
-0.165304
-0.171316
-0.087701
-0.123754
-0.120200
-0.097502
-0.064462
-0.054113
-0.080124
-0.111492
-0.133289
-0.181199
-0.133431
-0.160442
-0.105772
-0.036193
0.115924
-0.092386
-0.140629
-0.194700
-0.234731
-0.266091
-0.256566
-0.252874
-0.155781
-0.067198
-0.134500
-0.154029
-0.115077
-0.117030
-0.165923
-0.218793
-0.249588
-0.262332
-0.288232
-0.265937
-0.060308
-0.125825
-0.183123
-0.198391
-0.211657
-0.205689
-0.192957
-0.190232
-0.217120
-0.198598
-0.218890
-0.254991
-0.282070
-0.312085
-0.317204
-0.299398
-0.182294
-0.154416
-0.133100
-0.194306
-0.183668
-0.184867
-0.169632
-0.092151
-0.156979
-0.186872
-0.147141
-0.165255
-0.106460
-0.104655
-0.068637
-0.058602
0.020950
0.088850
0.100515
0.070580
-0.017730
-0.156948
-0.183463
-0.181560
-0.194322
-0.234709
-0.253005
-0.284787
-0.287019
-0.249036
-0.243979
0.264509
0.277849
0.281545
0.289466
0.279088
0.268365
-0.135840
-0.170803
-0.162791
-0.200296
-0.230659
-0.248196
-0.139863
0.003818
-0.152872
0.127276
-0.139406
-0.224818
-0.197790
-0.142462
-0.099837
-0.097891
-0.120492
-0.066428
-0.060424
-0.072920
-0.098540
-0.122390
-0.096005
-0.127087
-0.117810
-0.073020
-0.088397
-0.151022
-0.077754
-0.102054
-0.084970
-0.125305
-0.125009
-0.147722
-0.152837
-0.202661
-0.170816
-0.204939
-0.202625
-0.191263
-0.060072
-0.035841
-0.015105
-0.015346
-0.001185
0.025765
0.048869
0.032885
0.027173
0.006061
-0.100114
-0.087136
-0.047027
-0.009679
-0.003221
0.046811
-0.106635
0.048274
0.121746
0.141726
0.091653
-0.007291
0.006509
0.271013
0.321691
0.290440
0.272386
0.253436
0.280504
0.167371
0.123738
0.045897
-0.019355
-0.022876
-0.031098
-0.022211
-0.000682
0.008248
-0.000454
-0.015620
-0.156648
-0.226540
-0.242523
-0.270324
-0.290718
-0.308806
-0.321588
-0.330209
-0.264711
-0.190037
-0.220952
-0.209616
-0.265572
-0.202865
-0.184906
-0.118025
-0.217700
-0.317021
-0.285741
-0.284150
-0.273003
0.112171
0.111954
0.138080
0.046213
0.062443
0.004140
0.000279
0.007606
-0.019202
-0.016344
-0.029564
0.102150
0.078510
0.310370
-0.109152
0.234314
0.121488
0.124620
-0.233556
-0.236412
0.283091
0.270942
0.267056
0.280258
0.202300
0.186017
0.175597
0.073336
0.022686
0.016963
-0.203504
-0.172576
-0.163648
-0.139955
-0.122118
-0.121442
-0.048572
0.030245
-0.035416
-0.121236
-0.124459
-0.081009
-0.095279
-0.052364
0.061440
0.058493
0.102109
0.136868
0.172013
0.208483
0.240116
0.229921
0.233860
0.246525
0.227052
-0.237198
-0.252063
-0.257246
-0.264528
-0.251692
-0.259281
-0.251102
-0.260057
-0.224179
-0.221238
-0.238754
-0.237408
-0.225366
-0.216110
-0.258967
-0.221026
-0.208876
-0.182714
-0.185857
-0.181566
-0.204459
-0.210402
-0.198387
-0.193252
-0.190625
-0.194852
-0.174713
-0.147452
-0.102140
-0.097873
-0.050497
-0.061243
-0.099240
-0.092595
-0.129569
-0.092169
-0.146786
-0.069938
-0.107278
-0.084672
-0.079337
-0.008216
0.048329
0.030155
0.011025
-0.063126
-0.229038
-0.230420
-0.225870
-0.202134
-0.244921
-0.266963
-0.299255
-0.258265
-0.268937
-0.193890
-0.184119
-0.152447
-0.105923
-0.445879
-0.444680
-0.429659
-0.358936
-0.325694
-0.288517
-0.278901
-0.263994
-0.252166
-0.252181
-0.253765
-0.255648
-0.255438
-0.234835
-0.383113
-0.400246
-0.234368
-0.253979
0.243513
0.264002
0.014503
0.047444
0.078301
0.099227
0.113059
0.099463
0.042246
-0.026323
-0.000678
-0.022350
-0.043418
-0.018384
-0.000189
0.037532
0.015992
0.116958
0.099481
0.157745
0.163147
0.210559
0.104133
0.112365
0.046035
0.020640
0.034458
0.030683
0.054617
0.049060
0.079431
0.025026
0.057886
0.054509
0.017137
0.076038
-0.217574
-0.216069
-0.269025
-0.241137
-0.211311
-0.248658
-0.230469
-0.237764
-0.234577
-0.212866
-0.179143
-0.230908
-0.184653
-0.230866
-0.212726
-0.200908
-0.245174
-0.185315
-0.181709
-0.147070
-0.103499
-0.098653
-0.074548
-0.069440
-0.065737
-0.105915
-0.271989
0.026068
0.022356
-0.012771
-0.052622
-0.022865
-0.019420
0.019815
-0.002546
0.045332
-0.100652
-0.038840
-0.115624
-0.129798
-0.108285
-0.061357
-0.008656
0.027307
0.017276
0.098556
0.019961
-0.031711
0.133703
0.172670
-0.005947
-0.144748
0.042829
0.123782
0.290547
0.286964
0.246955
0.254644
0.202608
0.249427
-0.052985
-0.128100
-0.160030
-0.170639
-0.123630
-0.083404
-0.081045
-0.053198
-0.032948
-0.070386
-0.064968
-0.068349
-0.096097
-0.044772
-0.108547
-0.045067
-0.064504
-0.081591
-0.114573
-0.080629
-0.079748
-0.108466
-0.122465
-0.160831
-0.154361
-0.139007
-0.171808
-0.231018
-0.214997
-0.217979
0.190469
-0.020090
-0.054671
-0.126295
-0.126795
-0.098530
-0.063100
-0.044801
-0.038376
-0.026768
-0.056922
-0.034028
-0.071945
-0.045746
-0.041235
-0.058353
-0.041223
-0.028765
-0.094923
-0.109549
-0.057087
-0.059448
-0.104051
-0.101829
-0.136921
-0.127887
-0.104106
-0.162144
-0.205206
-0.196924
-0.233186
-0.219043
-0.195698
-0.187543
-0.199922
-0.207616
-0.228596
-0.252039
-0.245661
-0.265076
-0.242659
-0.098639
-0.181362
-0.041671
-0.103645
-0.302047
-0.436051
-0.413977
-0.426482
-0.434906
-0.410262
-0.389310
-0.362138
-0.350548
-0.295253
-0.294950
-0.271877
-0.241492
-0.252537
-0.245894
-0.239152
-0.237799
0.226845
0.247685
0.224321
0.268796
0.285032
0.261900
-0.197784
-0.160261
-0.145395
-0.123048
-0.132341
-0.111629
-0.065035
-0.034453
0.012095
-0.052825
-0.154666
-0.087303
-0.061710
-0.060363
-0.036661
-0.000340
0.032320
0.093482
0.065933
0.098790
0.134197
0.172398
0.197634
0.215547
0.237255
-0.113041
-0.099495
-0.106216
-0.079832
-0.025482
0.004883
-0.015474
-0.002980
-0.082993
-0.179992
-0.207638
-0.194910
-0.188121
-0.202572
-0.202631
0.019383
-0.002088
-0.025660
-0.011886
0.010687
-0.033072
0.036906
-0.017588
-0.049557
-0.065107
0.003919
0.134421
-0.030943
-0.007500
0.232886
0.200161
0.026253
0.028488
0.016358
-0.038034
-0.054076
-0.040044
-0.051632
-0.052319
-0.019830
0.013968
-0.050359
-0.037695
-0.127505
-0.137475
-0.114630
-0.091717
-0.063642
-0.061844
-0.044632
0.011781
0.005267
0.089019
0.036857
0.176952
-0.141723
0.140770
0.101086
0.108994
-0.213139
0.092814
0.190596
0.235165
0.251677
0.244178
0.186260
0.171165
0.140366
0.096280
0.043640
-0.001814
-0.020909
-0.003468
0.019478
0.038355
0.030917
-0.074496
-0.145586
0.179024
0.201462
0.165601
0.098642
0.052569
0.067187
0.090328
0.092772
0.057867
0.051676
-0.006835
-0.008208
0.002775
-0.015034
0.004156
0.013918
0.028376
0.026548
0.056739
0.067156
0.083592
0.152756
0.186553
0.232131
0.176710
0.180315
0.152433
0.110297
0.063649
0.041135
0.048723
0.019644
0.013217
0.074852
0.047519
0.055007
0.037674
0.009883
-0.017270
0.050225
0.014778
-0.187361
-0.227487
-0.230895
-0.259503
-0.212684
-0.215621
-0.202906
-0.167217
-0.195639
-0.211933
-0.192242
-0.202098
-0.197730
-0.198719
-0.174488
-0.118174
-0.156370
-0.108206
-0.092575
-0.056296
-0.072683
-0.069839
-0.180549
-0.195470
-0.211975
-0.244277
-0.245953
-0.223508
-0.266746
-0.245802
-0.005037
-0.037180
0.040555
-0.134798
-0.175408
-0.338476
-0.411758
-0.423958
-0.366007
-0.382519
-0.403513
-0.388122
-0.376297
-0.325770
-0.294701
-0.250535
-0.165118
-0.198146
-0.225205
-0.221030
-0.232928
-0.236678
-0.249673
-0.227334
-0.263236
-0.265735
-0.153038
-0.154607
-0.190111
-0.119426
-0.116949
-0.113764
-0.086175
-0.069209
-0.049753
-0.048595
-0.088303
-0.098454
-0.083932
-0.067822
-0.067306
0.005333
0.030735
0.042692
0.068624
0.002864
0.031879
0.074936
0.109601
0.132637
0.170717
0.149670
0.114070
0.054278
0.018142
0.021272
-0.007269
-0.052619
-0.057446
-0.007245
-0.075068
-0.098934
0.049605
0.062110
0.065184
0.059331
0.040860
0.055353
0.054282
0.027307
0.037228
0.033730
-0.005237
0.016157
0.029199
0.076961
0.044019
0.103308
0.096316
0.091523
0.119512
0.163622
0.245323
0.125006
0.123736
0.139693
0.091449
0.057591
0.066275
0.055411
0.049363
0.043935
0.074183
0.014375
0.062640
0.028535
-0.064163
-0.039910
0.063534
-0.001995
0.086944
-0.046567
-0.119956
-0.077940
-0.065484
-0.040240
-0.048730
-0.049087
-0.132145
-0.180519
-0.196181
-0.200499
-0.209132
-0.225663
-0.180784
-0.165238
0.054548
0.031239
0.016319
-0.020674
-0.042058
-0.038115
-0.068955
-0.065184
-0.059745
-0.052912
-0.046788
-0.034377
-0.080650
-0.070377
-0.112221
-0.060281
-0.089659
-0.108135
-0.094605
-0.082173
-0.004012
0.004521
0.101050
0.029306
0.261353
-0.186780
0.151465
0.074904
-0.032187
-0.195397
-0.212768
-0.151179
-0.136009
-0.039355
0.103722
0.135914
0.183166
0.234276
0.205351
0.233135
0.195041
0.148099
0.084890
0.040897
0.055580
0.019124
-0.009147
-0.008633
0.004766
0.026277
-0.400732
-0.367432
-0.344557
-0.279650
-0.284948
-0.226695
-0.222290
-0.210929
-0.252976
-0.252705
-0.234518
-0.257775
-0.227618
-0.225313
-0.221085
-0.250021
-0.220688
-0.046988
-0.012863
-0.049083
0.016807
-0.040201
-0.040528
-0.041864
-0.069679
-0.091298
-0.085988
-0.085256
-0.105296
-0.102357
-0.136005
-0.130842
-0.118721
-0.200690
-0.178188
-0.230240
-0.159951
-0.166378
-0.119236
-0.197184
-0.137444
-0.147727
-0.104181
-0.086001
-0.083431
-0.047545
-0.077748
-0.084765
-0.070712
-0.096473
-0.042625
0.003438
0.010364
0.048012
-0.019540
-0.110183
-0.084858
-0.086144
-0.113819
-0.123385
-0.090632
-0.182576
-0.200909
-0.204951
-0.185210
-0.206046
-0.210179
-0.137026
0.051943
0.008257
0.001965
-0.031332
0.030955
0.031832
0.025686
0.009507
0.057372
-0.208681
-0.262538
-0.245223
-0.350004
-0.367919
0.041823
0.071027
0.199352
0.202369
0.211983
0.197966
0.206771
0.156360
0.098358
0.041586
0.029098
0.022605
0.038576
0.015056
0.012808
0.003986
0.023245
-0.073959
-0.008180
-0.019681
-0.052156
-0.027867
-0.071080
-0.048721
-0.103298
-0.076290
-0.098444
-0.097223
-0.087824
-0.131703
-0.144199
-0.173266
-0.172350
-0.208890
-0.214556
-0.183905
-0.181396
-0.195934
-0.212532
-0.244059
-0.272586
-0.216686
-0.315019
-0.133076
-0.029358
0.234110
0.058340
-0.047978
-0.077469
-0.202531
-0.207849
-0.200210
-0.196244
-0.163669
-0.211770
-0.206994
-0.165909
-0.188494
-0.184290
-0.184688
-0.169388
-0.149745
-0.170350
-0.180036
0.135511
0.124254
0.140637
0.097478
0.061197
0.047865
-0.365088
-0.354538
-0.345925
-0.262622
-0.247851
-0.264116
-0.269878
-0.272803
-0.263626
-0.247207
-0.242938
-0.241855
-0.220460
-0.225896
-0.203222
-0.227708
-0.204375
-0.185643
-0.193251
-0.173814
-0.175299
-0.157397
-0.167373
-0.180119
-0.181575
-0.209248
-0.211937
-0.193066
-0.176990
-0.157395
-0.133103
-0.129297
-0.140991
-0.135287
-0.135379
-0.123749
-0.121467
-0.096256
-0.082608
-0.073526
-0.099978
0.036294
0.032867
0.088368
0.088228
-0.042674
0.084091
-0.005983
-0.084814
0.021522
-0.012321
0.050410
0.073515
0.003679
0.009250
0.007548
0.014785
0.003840
0.004405
0.044431
0.048320
0.066929
0.056919
0.133942
0.133378
0.132019
0.150652
-0.132790
-0.183114
-0.203525
-0.170818
-0.151923
-0.147957
-0.148402
-0.147382
-0.148904
-0.140294
-0.055810
-0.106720
-0.029373
-0.027185
0.003259
0.005356
-0.044631
-0.055597
-0.075394
-0.076625
-0.074635
-0.069185
-0.072830
-0.066124
-0.050437
0.013984
-0.026394
-0.007733
-0.058785
0.014284
-0.048108
-0.058112
-0.071440
-0.059951
-0.112574
-0.122681
-0.135312
-0.145714
-0.117697
-0.180965
-0.175300
-0.201556
-0.186253
-0.187066
-0.217999
-0.252856
-0.282424
-0.264134
-0.246129
-0.021583
0.094106
0.246051
0.104831
0.060171
-0.060478
0.070875
0.004465
-0.010740
-0.229095
-0.326597
-0.357187
-0.343104
-0.325143
-0.267387
-0.212416
-0.231686
-0.270040
-0.262445
-0.235643
-0.239808
0.026831
0.041408
0.010693
-0.082078
0.046795
0.107129
0.168434
0.151471
0.141957
0.156877
0.139459
0.051597
0.031576
0.006376
0.012715
0.015539
0.005975
0.007238
0.012140
0.042420
-0.135895
-0.155379
-0.145767
-0.144422
-0.131057
-0.152188
-0.151221
-0.070098
0.038690
0.125523
0.113158
0.034765
0.099726
-0.226487
0.179594
0.047696
-0.119784
-0.161909
-0.138579
-0.132712
-0.142121
-0.155847
-0.116561
-0.089171
-0.097357
-0.073381
-0.096958
-0.107692
-0.105620
-0.062801
-0.058722
-0.064694
-0.065679
-0.104473
-0.083443
-0.115459
-0.113964
-0.083764
-0.096214
-0.107331
0.110771
0.133872
0.060690
0.094525
0.088045
0.039321
0.020598
0.054863
0.076732
0.050751
-0.010591
-0.013948
0.001440
-0.244423
-0.190304
-0.204315
-0.196236
-0.192184
-0.156804
-0.206914
-0.194771
-0.179042
-0.188444
-0.177331
-0.162550
-0.139929
-0.149142
-0.010746
0.001401
-0.007321
-0.025382
-0.059954
-0.084257
-0.088221
-0.114528
-0.110276
-0.097674
-0.105329
-0.119237
-0.136709
-0.184575
-0.170608
-0.178239
-0.184757
-0.224312
-0.271674
-0.302308
-0.294386
-0.246296
-0.028770
0.074836
0.022536
0.097099
0.052369
-0.017800
-0.004502
-0.051834
0.071420
-0.044326
-0.100541
-0.254094
-0.330994
-0.342821
-0.326966
-0.310304
-0.270620
-0.231757
-0.197750
-0.259668
-0.239077
-0.259419
-0.229679
-0.010291
0.000696
-0.035314
-0.009681
-0.019917
0.034496
0.004400
-0.034498
0.018384
0.069255
0.053030
0.097989
0.173171
0.144866
-0.069376
-0.085356
-0.203413
-0.173923
-0.159153
-0.146560
-0.160210
-0.122456
-0.115917
-0.139365
-0.126486
0.114065
0.048702
0.008217
0.005062
0.016215
-0.011432
-0.006825
0.025078
0.009335
-0.028419
0.003068
-0.000666
-0.033037
-0.068127
-0.009973
-0.038887
-0.090131
-0.076345
-0.119921
-0.106882
-0.169201
-0.120254
-0.153759
-0.173499
-0.180807
-0.191307
-0.227326
-0.283663
-0.306425
-0.296958
-0.211049
-0.074820
0.048619
0.020271
0.158663
0.186216
0.216050
-0.076116
0.019588
0.155912
-0.050793
-0.117469
-0.159141
-0.313625
-0.323013
-0.316467
-0.292840
-0.277862
-0.229728
-0.207376
-0.243224
-0.225843
-0.191991
-0.224325
-0.205793
-0.205522
0.124116
0.107554
0.087744
0.053091
0.047774
0.050541
0.010540
-0.007283
-0.021108
0.107979
-0.195218
-0.291425
0.123924
-0.102814
-0.157522
-0.172565
0.091746
0.106065
-0.133328
-0.157490
-0.173677
-0.168932
-0.147454
-0.167291
-0.131825
-0.111775
-0.132073
-0.117452
-0.087906
-0.100634
-0.129307
-0.105413
-0.084230
-0.075139
-0.063531
-0.113308
-0.136970
-0.190414
-0.111173
-0.126763
-0.158297
-0.092158
-0.082595
0.026661
-0.020172
-0.001210
-0.034404
0.020014
0.013856
-0.020247
-0.036652
0.047408
0.007770
0.018310
0.104428
0.124784
0.112812
-0.158695
-0.218671
-0.190921
-0.190054
-0.208681
-0.207169
-0.163124
-0.162379
-0.176909
-0.176375
-0.189588
-0.166230
-0.191890
-0.213010
-0.187555
-0.026360
0.040255
0.110734
0.114760
0.066449
0.027092
-0.144034
0.146488
0.015145
-0.040099
-0.054602
-0.050700
-0.199663
-0.191216
-0.134481
-0.082955
-0.011135
0.065743
0.045299
0.003738
0.053298
-0.025599
0.036991
-0.011775
-0.045803
-0.041123
-0.046501
-0.057852
-0.096577
-0.075056
-0.131241
-0.111303
-0.130251
-0.164545
-0.168234
-0.192372
-0.228670
-0.287218
-0.304410
-0.276565
-0.215746
-0.067711
0.030302
0.068939
0.127394
0.247550
0.213305
-0.101072
-0.116274
-0.151566
-0.144032
-0.139856
-0.126645
-0.158604
-0.145432
-0.151224
-0.157148
-0.157477
-0.092588
-0.110436
-0.157280
-0.187661
-0.238494
-0.229295
-0.222398
-0.227727
-0.179733
-0.152802
0.028023
-0.180027
-0.178604
-0.160081
-0.158860
-0.184040
-0.191730
-0.169557
-0.202133
-0.196386
-0.161150
-0.153021
-0.172730
-0.163286
-0.164382
-0.141927
-0.125669
-0.172555
-0.162745
-0.179766
-0.171151
-0.167703
-0.176980
-0.146153
-0.170056
-0.194648
-0.123812
-0.109483
-0.161041
-0.164921
-0.159826
0.016174
-0.021891
-0.048342
-0.018961
-0.020426
-0.022609
-0.057012
0.003169
-0.006857
0.029421
0.044552
0.066214
0.076439
-0.191850
-0.187774
-0.182464
-0.157363
-0.242743
-0.179752
-0.179841
-0.178958
0.069329
0.052292
0.027205
0.032648
-0.014437
-0.137125
0.023004
0.011934
0.007161
-0.017769
-0.072523
-0.065049
-0.101822
-0.099712
-0.100366
-0.091842
-0.114485
-0.123601
-0.154457
-0.180074
-0.228463
-0.274484
-0.280032
-0.269534
-0.177585
-0.105385
0.013635
0.076049
0.041772
0.158166
0.043076
0.124701
0.034610
0.094814
-0.094720
0.026670
-0.268682
-0.301754
-0.289764
-0.270538
-0.258319
-0.240234
-0.233808
-0.193652
-0.188217
-0.190038
-0.195596
-0.100819
-0.126627
-0.128926
-0.224254
-0.207557
-0.165050
-0.114589
-0.069374
-0.046657
-0.013190
0.050269
-0.117436
-0.189322
-0.175880
-0.220178
-0.231901
-0.196377
-0.151749
-0.103001
-0.074870
-0.028424
0.009364
-0.026422
-0.008525
-0.135001
-0.146309
-0.172838
-0.194232
-0.244936
-0.258172
-0.279944
-0.168755
-0.191560
-0.212449
-0.162168
-0.185234
-0.025224
-0.066980
-0.023427
-0.011801
0.014290
0.010144
-0.005582
0.007120
0.020604
0.097026
0.080604
0.030032
0.041528
0.003572
0.054564
-0.236476
-0.250847
-0.160669
-0.163496
-0.185158
-0.206759
-0.238488
-0.269953
-0.260622
-0.209971
-0.249911
-0.208986
-0.183203
-0.131765
-0.110702
-0.072061
-0.045340
-0.033254
-0.039077
-0.046000
-0.052390
-0.057842
-0.004976
-0.038083
-0.020700
-0.075718
-0.009330
-0.035408
-0.016345
0.043218
-0.055539
-0.046346
0.061889
0.026801
-0.104441
-0.094414
-0.086832
-0.130948
-0.155836
-0.220315
-0.065508
-0.096098
-0.065655
-0.084849
-0.085814
-0.194803
-0.040761
-0.085296
-0.079160
-0.027891
-0.046507
-0.142416
0.044486
-0.088436
-0.223946
-0.171784
-0.353461
0.070587
-0.060048
0.443939
0.399811
0.265707
0.375528
-0.206637
-0.196449
-0.246725
0.198790
0.249339
0.214633
0.081649
0.320258
0.222953
0.324970
0.020659
0.087699
0.001148
0.105638
-0.225340
-0.195442
-0.019187
-0.033885
-0.051448
-0.189269
-0.167665
-0.173288
-0.261028
-0.244410
0.238227
0.236823
0.263195
0.249115
0.222273
0.218845
0.234997
0.228069
0.226074
0.213787
0.229893
0.245999
0.177859
0.131537
0.030557
-0.125664
-0.091006
-0.126251
-0.048066
-0.079611
-0.035231
-0.232724
-0.197008
-0.228588
0.042352
0.054188
-0.150864
-0.110180
-0.147175
-0.213432
-0.211876
-0.277595
-0.191047
-0.167380
-0.162722
-0.161596
-0.012775
-0.049213
-0.023462
-0.172294
-0.181313
-0.190231
0.018544
-0.011380
-0.008960
0.052084
0.043591
0.041849
0.058847
0.036789
0.045588
0.013514
0.029131
-0.049102
0.383369
0.352211
0.346520
-0.112633
-0.046387
-0.104745
-0.072213
-0.100784
-0.090453
-0.072332
-0.071466
0.049272
0.234033
0.310569
0.241098
-0.052554
0.135949
-0.091068
-0.061760
-0.083122
-0.049998
-0.075617
-0.088080
-0.073494
0.015876
0.050109
0.050382
0.093386
-0.089256
-0.177088
-0.208006
0.042710
-0.115814
-0.021825
-0.104454
-0.040711
-0.048772
-0.097397
-0.050758
-0.015397
0.007859
0.021296
0.206093
-0.050759
-0.016874
0.084167
0.112642
0.095189
-0.057414
0.145929
0.291084
0.220128
0.216068
0.221073
0.207591
0.069966
-0.068835
-0.158748
-0.068153
0.030812
0.100856
0.117572
0.157150
0.100306
0.073467
0.023971
-0.083143
-0.115790
-0.043670
0.028045
-0.054731
-0.136791
0.052337
0.016603
-0.006312
-0.048527
-0.086559
-0.097349
-0.090856
-0.114298
-0.108082
-0.109203
-0.100397
-0.106959
-0.113118
-0.100367
-0.076251
-0.041593
0.076781
0.046030
0.069140
0.160532
0.182703
0.258766
0.098442
-0.083924
-0.038082
-0.122816
-0.087169
-0.160728
-0.183803
-0.197805
-0.202922
-0.208520
-0.210912
-0.198691
-0.205336
-0.194988
-0.172047
-0.184044
-0.170072
-0.128374
-0.103689
-0.127158
-0.110011
-0.071422
-0.138578
-0.139306
-0.242245
-0.276910
-0.320023
-0.323780
-0.248540
-0.055160
-0.037397
-0.103395
-0.085322
-0.019807
0.006189
0.019352
0.064243
0.066096
0.057244
0.012071
0.073495
-0.019585
0.089555
-0.013102
-0.006417
0.008015
-0.012722
-0.003471
-0.013347
0.030095
0.037523
0.036653
0.043602
0.048415
0.056141
0.065746
0.059477
0.086700
0.056849
0.088105
0.060375
0.099375
0.096167
0.069179
0.062371
0.028088
0.040518
0.081164
0.049767
0.125492
0.120625
0.051374
0.072328
0.103678
0.105875
0.094247
0.125389
0.029650
0.093723
0.070409
0.053992
0.049916
0.035953
-0.130481
-0.125874
0.082338
0.123693
0.044707
0.246920
0.148439
-0.144952
-0.076401
-0.127570
-0.146015
-0.089016
-0.174067
-0.053878
0.134334
-0.150845
0.064091
-0.141075
-0.251225
-0.286327
-0.143983
-0.184020
0.172039
0.275182
0.039531
-0.073746
0.033933
-0.151404
-0.115526
-0.193618
-0.140121
-0.173321
0.118239
0.176297
0.004552
0.031938
0.308806
0.223208
0.275100
0.318424
0.078814
0.032826
-0.000309
-0.111005
-0.135924
0.078229
0.083401
0.218712
0.037885
-0.007479
-0.078343
-0.118887
-0.243658
-0.238050
-0.125980
0.060080
-0.185338
-0.164330
-0.022536
-0.147088
-0.122992
-0.178191
0.043513
0.049478
0.068951
0.138771
0.220557
0.152219
0.109842
0.227424
0.049701
0.124826
0.192545
0.169848
0.155959
0.156419
0.213478
0.189030
0.005387
0.040608
-0.007158
0.060024
0.108821
0.113036
0.167192
0.164384
0.131750
0.025923
-0.150594
-0.135700
-0.097600
-0.049455
-0.135692
-0.157653
-0.119530
-0.198385
-0.177826
-0.102309
0.138448
0.175257
0.054316
-0.158851
-0.202100
-0.178311
-0.252411
-0.268077
-0.313550
-0.245314
-0.137399
-0.231672
-0.278582
-0.060939
-0.057744
-0.181358
-0.113161
-0.093150
-0.085576
-0.092175
-0.040562
0.004448
0.016685
0.005258
0.003959
-0.044228
-0.017078
-0.038778
-0.038860
-0.090642
-0.050716
-0.056725
-0.051108
-0.052755
-0.004757
0.003738
0.013501
0.008123
0.035068
0.015007
0.032283
0.018343
0.046954
0.050524
0.035542
0.056224
0.036878
0.027490
0.006047
-0.000927
0.080544
0.038622
0.068073
0.087753
0.013194
0.067033
0.008211
0.023814
0.024435
0.016234
0.007477
0.014233
0.010160
0.002075
0.005391
-0.033041
-0.084656
0.228839
-0.067818
-0.068957
-0.031093
-0.104388
-0.072455
-0.057415
0.084207
0.025723
0.096069
-0.129352
-0.227863
-0.222097
-0.170257
-0.215201
0.145369
0.260991
0.319661
0.089600
0.039734
0.062270
-0.136356
-0.188867
-0.121502
-0.246766
-0.090254
0.024230
-0.092412
0.112173
0.106243
0.020807
-0.153619
-0.056194
-0.092305
0.016096
0.033168
0.132908
0.101414
0.108322
0.009856
-0.071938
-0.228774
-0.237164
-0.160107
-0.072457
0.198556
0.312333
0.228968
0.170603
-0.027751
-0.034854
-0.145417
-0.120482
-0.210843
-0.189634
-0.260618
-0.230401
-0.104586
-0.185923
-0.186313
0.090786
0.096699
0.055184
-0.046780
-0.117180
-0.153794
-0.189520
-0.208242
-0.230127
-0.254573
-0.251977
-0.237227
-0.239134
-0.194528
-0.035063
-0.055148
-0.080167
-0.078867
-0.111170
-0.089613
-0.082388
-0.063999
-0.049472
-0.060806
-0.030401
0.009100
0.037258
0.076411
0.047466
0.154142
0.193651
-0.048382
-0.011841
-0.035301
-0.110534
-0.135472
-0.220400
-0.251502
-0.310216
-0.214014
-0.192870
-0.138330
0.032635
0.034506
0.069759
0.077500
0.169479
0.042179
-0.028302
0.173464
0.242266
0.318485
0.154155
0.265521
0.258898
0.244333
0.235149
0.189081
0.182647
0.200020
0.044291
0.020897
-0.119078
-0.000203
0.169178
0.205146
0.230058
0.189638
0.045205
-0.148421
-0.153988
-0.172800
-0.120057
-0.203360
-0.171086
-0.158981
-0.140774
-0.116964
-0.114922
-0.064283
0.095571
0.055790
0.212135
-0.036634
-0.047578
-0.068207
-0.080620
-0.049564
-0.050951
-0.040758
-0.003781
-0.032176
0.003221
-0.004586
0.070578
0.095132
0.095327
0.131967
0.014424
0.108488
0.219027
0.186716
0.313626
0.098797
0.152988
0.013779
0.074696
0.010004
-0.025227
-0.052024
-0.023877
-0.270966
-0.319379
-0.336520
-0.298890
-0.285934
-0.278700
-0.226627
-0.088395
-0.061688
-0.250584
-0.256449
-0.192617
-0.150923
-0.115774
-0.113675
-0.035972
-0.023363
0.006706
-0.041389
-0.062127
-0.072005
-0.060526
-0.079997
-0.099296
-0.075556
-0.083915
-0.117237
-0.136182
-0.107939
-0.080688
-0.049225
-0.059209
-0.058262
-0.034972
-0.012332
-0.031089
-0.011824
-0.011532
-0.010041
0.003377
0.006703
0.003305
-0.004939
0.031317
0.024384
0.031274
0.018571
-0.027838
0.007797
-0.014420
0.039860
0.042890
0.015647
0.014545
-0.003803
0.000210
-0.024540
-0.017773
-0.026080
-0.009363
-0.023257
-0.001733
-0.056754
0.004085
0.055545
0.112793
0.020661
0.081960
0.102968
-0.026824
-0.172609
-0.244915
-0.129325
0.018517
0.278152
0.274707
0.228806
-0.050182
-0.100360
-0.146546
-0.178114
-0.203100
-0.191289
-0.071264
-0.136268
-0.127399
0.037749
-0.043836
-0.023418
-0.242070
0.135508
0.012997
-0.097735
-0.164578
-0.213785
-0.208007
-0.252371
-0.295168
-0.276206
-0.296080
-0.275092
0.090608
0.140269
-0.266387
-0.111993
-0.172029
-0.231545
0.221222
0.231957
0.109425
0.036761
-0.010985
0.070164
0.171883
0.214240
0.209439
0.104745
0.069613
0.206309
0.254687
0.280102
-0.234917
0.088814
0.277909
0.248964
0.240680
0.129240
0.095136
0.016875
0.066523
0.108851
0.169341
0.171875
0.160421
0.052746
0.104369
0.302511
0.280631
0.270686
0.246582
0.234459
0.223630
0.184796
0.136296
0.154356
0.023974
-0.056728
0.061497
0.166511
0.205196
0.221433
0.186495
0.078485
-0.120579
-0.205367
-0.212928
-0.186634
-0.190843
-0.152631
-0.088211
-0.067597
-0.135011
-0.133710
-0.104024
-0.080565
-0.065812
-0.059898
-0.295491
-0.317421
-0.318639
-0.286180
-0.142076
-0.232002
-0.136248
-0.032516
-0.328888
-0.293100
-0.237821
-0.214991
-0.131544
-0.081239
-0.033107
-0.068227
-0.090755
-0.102016
-0.092499
-0.093943
-0.106402
-0.132564
-0.131594
-0.093603
-0.141736
-0.141728
-0.155627
-0.124459
-0.094650
-0.097436
-0.119449
-0.075667
-0.089285
-0.084400
-0.085605
-0.054044
-0.043550
-0.030841
-0.029570
-0.019394
-0.014389
-0.021838
-0.021186
-0.019234
-0.039289
-0.032127
-0.011559
-0.043314
-0.042686
-0.077486
-0.044376
0.059974
0.021346
-0.051870
-0.027589
-0.013327
-0.057959
-0.086018
-0.054347
-0.050191
-0.064553
-0.091990
-0.097028
-0.118130
-0.119723
-0.175620
-0.084216
-0.094845
-0.023718
-0.029661
0.066633
0.014557
0.016212
0.068562
0.103994
0.097824
0.127909
0.062123
0.068784
0.120751
0.182261
0.243534
0.279494
0.270668
0.110272
-0.003525
-0.016815
0.022980
0.038379
-0.027274
-0.072634
-0.013847
0.008789
0.022239
0.118044
0.085366
0.028701
-0.107352
-0.191933
-0.187937
0.018669
0.224519
0.256702
0.204450
0.168545
0.150121
0.095643
0.074564
-0.060652
-0.093428
-0.132486
-0.185697
-0.206160
-0.189142
-0.103353
0.018524
-0.053137
0.048658
-0.000572
-0.188010
-0.113893
-0.243120
0.178449
-0.044494
-0.201634
-0.187269
-0.184430
-0.271035
-0.318576
-0.314289
-0.180593
-0.213273
-0.300348
-0.315574
-0.161168
-0.239145
0.140347
-0.213453
-0.311510
-0.281409
-0.234249
-0.238518
-0.249153
-0.232588
-0.203377
-0.176668
-0.171623
-0.118589
-0.056140
-0.142978
-0.151369
-0.090820
-0.093971
-0.119883
-0.098110
-0.123643
-0.164766
-0.161037
-0.159105
-0.167026
-0.131994
-0.160885
-0.160306
-0.127185
-0.066954
0.061581
0.064511
0.131483
0.007206
-0.016551
-0.020216
0.071255
-0.140249
-0.200842
-0.181038
-0.133127
-0.105989
-0.086259
-0.081700
-0.099361
-0.109921
-0.110153
-0.091902
-0.096433
-0.110290
-0.053899
-0.075319
-0.003279
-0.052262
-0.017556
-0.001026
0.045312
-0.000913
0.073550
0.024348
0.123407
0.117919
0.184460
0.138941
0.173543
0.217633
0.280984
0.169900
-0.011000
-0.076823
-0.072262
-0.083631
-0.104295
-0.078206
-0.132605
-0.122801
-0.086772
-0.067835
-0.037450
0.065770
0.189867
0.265857
0.233355
0.166690
0.178511
0.123464
0.074418
0.079645
0.094045
0.113576
0.129501
0.102916
0.162755
0.260222
0.280671
0.269952
0.238323
0.227609
0.223899
0.196500
0.164394
0.153429
0.063511
-0.094591
-0.087049
-0.058662
-0.053300
-0.071274
-0.044387
-0.057525
-0.040269
-0.019466
-0.019770
-0.020853
-0.022421
-0.038528
-0.034574
-0.020503
0.013442
-0.043555
-0.131358
-0.110345
-0.021270
-0.018585
-0.022387
-0.038925
-0.039822
-0.056006
-0.096614
0.186673
0.188950
0.232655
0.267910
0.327545
0.123238
-0.161443
-0.126127
-0.170103
-0.131026
-0.128164
-0.097089
-0.094495
-0.094202
-0.067857
-0.058045
-0.090087
-0.097070
-0.098905
-0.108020
-0.061837
-0.042116
-0.090012
-0.066268
-0.049959
0.037338
-0.070484
-0.057879
0.017400
0.042091
0.099397
0.214588
0.170996
0.144353
0.176064
0.095806
0.226617
0.118765
-0.016259
-0.085028
-0.110285
-0.108431
-0.073289
0.021877
0.026087
-0.005672
-0.057605
-0.118042
-0.143487
-0.004006
0.214233
0.225626
0.204840
0.191670
0.168989
0.089579
0.112805
0.045516
-0.060794
0.022390
-0.064642
0.133967
0.004350
-0.074742
-0.117178
-0.172937
0.029989
-0.060194
0.100831
-0.075965
-0.211328
-0.208539
-0.209440
-0.244659
-0.226195
-0.198539
-0.166817
-0.117663
-0.113951
-0.092452
-0.142305
-0.128385
-0.117307
-0.112942
-0.119109
-0.140812
-0.129731
-0.150752
-0.146486
-0.176379
-0.192033
-0.174548
-0.158268
-0.130939
-0.144997
-0.145512
0.143848
0.211877
0.080194
0.055127
0.051030
0.023844
-0.028179
-0.067970
0.007368
-0.018783
-0.092661
-0.167615
-0.192885
-0.197594
-0.101960
-0.075454
-0.060430
-0.019798
-0.013386
-0.119832
-0.125697
-0.100421
-0.104485
-0.060830
-0.069759
-0.059656
-0.038236
-0.017045
-0.022317
-0.040989
-0.044134
-0.037402
-0.034777
-0.040268
-0.026777
-0.011256
-0.042604
-0.019872
-0.027478
-0.105821
-0.110785
-0.019266
0.062065
-0.018307
-0.045111
-0.039970
0.171649
0.209025
0.250971
0.286644
0.303792
0.340318
0.107318
0.114864
-0.129152
-0.173644
-0.138289
-0.158098
-0.088309
-0.100206
-0.083225
-0.045977
-0.065057
-0.037501
-0.082912
-0.093758
-0.091438
0.149139
0.176186
0.115508
0.096632
0.008503
0.015981
0.000213
-0.065058
-0.109009
-0.081576
-0.155286
-0.178934
-0.206802
-0.165441
-0.131070
-0.094785
-0.072847
-0.068791
-0.087346
0.017732
0.029320
0.126968
0.010013
0.212308
0.188061
0.188465
0.149349
0.148056
0.148049
0.090234
0.080355
0.090335
0.152426
0.148723
0.158048
0.150868
0.214101
0.235316
0.250605
0.242438
0.227681
0.226832
0.226917
0.216558
0.168148
0.068311
-0.077410
-0.052826
-0.109947
0.033670
-0.155874
-0.017715
0.051512
0.108643
0.173511
0.138027
0.145296
0.156569
-0.112749
-0.104689
-0.090778
-0.073440
-0.068788
-0.143836
-0.101321
-0.066806
-0.105072
-0.087642
-0.113074
-0.093867
-0.104280
-0.141283
-0.149182
-0.150861
-0.167430
-0.153500
-0.181618
-0.210219
-0.208343
-0.187050
-0.183124
-0.156693
-0.133607
-0.127226
-0.122787
-0.106854
-0.102560
-0.060524
-0.065389
-0.059461
-0.052829
-0.147902
-0.095848
-0.029505
-0.077043
-0.047879
-0.053836
-0.101318
-0.076220
-0.157008
-0.070413
-0.038401
-0.193268
-0.147878
-0.067568
-0.071069
-0.067676
-0.012109
-0.209456
-0.190655
-0.071145
-0.051268
-0.045220
-0.041272
-0.014069
-0.052705
-0.056960
-0.036257
-0.016977
0.000312
-0.018924
-0.039607
-0.018798
0.002859
-0.082473
-0.071787
0.091406
0.104779
-0.002700
-0.074203
-0.100333
-0.118940
-0.112869
-0.043367
-0.005553
-0.012289
-0.039398
-0.091620
-0.071166
-0.000142
0.154532
-0.183173
-0.187734
-0.193140
-0.167651
-0.077879
0.031150
0.126371
0.238865
0.241894
0.243174
0.247465
0.226154
0.231466
-0.011410
0.087674
-0.208486
-0.203118
0.259220
0.291847
0.331501
0.326990
0.189818
0.085330
-0.027049
-0.122576
-0.162560
-0.163522
-0.159601
-0.120325
-0.087558
-0.088124
-0.069227
-0.029281
-0.026846
-0.030995
-0.078920
-0.084024
-0.090482
-0.117422
-0.069107
-0.049645
-0.028821
-0.007536
-0.020568
-0.031985
0.015731
0.048971
0.140581
0.174500
0.119092
0.139636
0.065088
0.064419
0.086093
0.104716
0.151870
0.109954
-0.022662
-0.016262
-0.159852
-0.207624
-0.226678
-0.206061
-0.214349
-0.173590
-0.200184
-0.202881
-0.165244
-0.153389
-0.139420
-0.128860
-0.099431
-0.086182
-0.088325
-0.064697
-0.070519
-0.080866
-0.059769
-0.069128
-0.197441
-0.171674
-0.230025
-0.208648
-0.185814
-0.190242
-0.157117
-0.177807
-0.182531
-0.169388
-0.152411
-0.140503
-0.163434
-0.108865
-0.072587
-0.138467
-0.132061
-0.075603
-0.082423
-0.076762
-0.071690
-0.073961
-0.076847
-0.076572
-0.100125
-0.057626
-0.099116
-0.024667
-0.058787
-0.041654
-0.028700
0.009779
0.019862
0.092583
0.072886
0.013891
0.039732
0.094393
0.079626
0.083167
0.083496
0.058138
0.041259
0.083851
0.096338
0.096437
0.145646
0.198129
0.186847
0.148611
0.151593
0.006459
0.041461
0.039392
0.096544
0.024339
0.024896
0.019060
0.047559
0.082381
0.088873
0.141414
0.180209
0.202043
0.180498
0.187946
0.198224
0.238418
0.254789
0.143934
0.049965
-0.031121
-0.081954
-0.102265
-0.121174
-0.133084
-0.107266
0.273917
0.304631
0.328658
0.310885
0.212260
0.092907
0.035984
-0.072560
-0.142916
-0.144084
-0.125570
-0.121908
-0.129457
-0.101245
-0.084262
-0.081200
-0.064686
-0.012977
0.000242
-0.015242
-0.037895
-0.052375
-0.184385
-0.016937
-0.049449
-0.074526
-0.041478
-0.036254
0.105297
0.113423
0.086593
0.051514
0.268881
0.276691
0.277150
-0.118024
-0.031145
0.019925
0.051025
-0.100675
-0.131426
-0.092184
-0.083091
-0.073132
-0.092496
-0.074796
-0.077089
-0.072901
-0.088724
-0.083814
-0.083587
-0.082253
-0.078841
0.089229
0.066332
0.058938
0.042895
0.015389
0.045396
0.009350
0.007265
0.051315
-0.020505
-0.072392
-0.101577
-0.106816
-0.086016
-0.096633
-0.098514
-0.088963
-0.072345
-0.049860
-0.050992
-0.020197
-0.000834
0.303419
0.322891
0.300247
0.231296
0.132130
0.052414
-0.067269
-0.126093
-0.122044
-0.134839
-0.121792
-0.103638
-0.108129
-0.085402
-0.113306
-0.069689
-0.078193
-0.065993
-0.016113
-0.000489
-0.024349
-0.029054
-0.046225
-0.074772
-0.117307
-0.126516
-0.159912
-0.076760
-0.033050
-0.032465
-0.005635
0.003027
0.073445
0.046341
0.074622
0.244817
0.281688
-0.037201
-0.036786
-0.040654
-0.033596
0.035638
0.057357
0.045070
0.017840
-0.019336
0.023644
0.304057
-0.019360
0.000050
0.107422
0.049065
0.044282
0.018016
0.021805
0.054477
0.016047
0.008549
-0.041467
-0.078366
-0.100027
-0.111518
-0.119749
-0.109469
-0.075541
-0.071805
-0.103772
-0.002989
-0.067111
-0.026684
-0.139545
-0.164377
-0.194992
-0.182383
-0.194907
-0.167781
-0.151132
-0.147930
-0.162584
-0.163716
-0.167267
-0.169445
-0.154138
-0.143206
-0.092612
-0.092872
-0.089726
-0.096522
-0.096113
-0.111695
-0.066360
-0.055395
-0.043539
0.027047
0.303217
0.282670
0.239776
0.151117
0.055221
-0.047723
-0.077285
-0.078889
-0.085737
-0.091160
-0.084684
-0.084214
-0.112491
-0.113226
-0.101918
-0.126869
-0.105724
-0.042052
-0.071052
-0.100669
-0.052359
-0.046797
-0.028500
-0.009637
0.028969
-0.027456
-0.047927
-0.079423
-0.056444
-0.018359
0.004974
-0.036337
0.267786
0.067743
0.055317
0.044903
0.033717
0.005026
-0.001527
-0.110822
-0.127509
-0.140800
-0.098334
-0.105114
-0.080568
-0.138995
-0.157825
-0.101516
-0.142224
-0.140474
-0.129306
-0.127377
-0.066497
-0.128449
-0.158640
-0.160553
-0.171099
-0.169978
-0.131278
-0.138720
-0.121081
-0.088127
-0.097474
-0.077170
-0.096254
-0.087590
-0.077524
-0.094416
-0.060864
-0.088205
-0.083894
-0.096464
-0.073208
-0.086596
-0.081635
-0.058580
-0.048608
0.082590
0.022101
0.041318
-0.008113
-0.030984
-0.038079
-0.011624
0.040231
0.064764
0.118222
0.142354
0.193205
0.252476
0.211737
0.151643
-0.061946
-0.067126
-0.066469
-0.074153
-0.104503
-0.065469
-0.076685
-0.040819
-0.072777
-0.037752
-0.112226
-0.050466
-0.024845
-0.016840
-0.029724
-0.015871
-0.073240
-0.070979
-0.092270
-0.037183
-0.002590
0.056955
0.088745
0.129288
0.164416
0.212417
0.220278
-0.092057
-0.061233
-0.052224
-0.032913
-0.046585
-0.027780
-0.058211
-0.068654
-0.125058
-0.139006
-0.110955
-0.075065
-0.026865
-0.022114
0.031014
0.054595
0.102775
0.161871
0.021478
-0.028606
-0.063447
0.192503
-0.060480
-0.092972
-0.117150
-0.091031
-0.096089
-0.155116
-0.122761
-0.161797
-0.086314
-0.104187
-0.120717
-0.141012
-0.069337
-0.057708
0.025107
-0.098519
-0.151896
-0.115151
-0.122901
-0.152175
-0.147766
-0.146837
-0.140044
-0.097681
-0.094005
-0.068764
-0.083423
-0.058146
-0.086047
-0.083777
-0.060050
-0.055013
-0.015196
-0.058503
-0.089920
-0.068385
-0.108294
-0.108947
-0.081962
-0.131313
-0.099196
-0.120568
-0.128983
-0.120327
-0.123732
-0.102971
-0.107987
-0.086106
-0.109027
-0.109129
-0.132083
-0.161332
0.160817
0.211817
0.168501
0.167734
0.164961
0.202550
0.118377
0.081108
0.090113
0.116916
0.038870
0.187128
-0.029687
-0.204172
-0.193613
-0.092947
-0.148002
0.082900
0.070234
0.109711
-0.112216
-0.108214
-0.164912
0.058352
-0.117906
-0.194692
0.199676
0.199484
0.226578
0.212390
-0.091695
-0.088166
-0.042341
-0.117705
-0.099130
-0.082848
-0.094042
-0.084116
-0.074961
-0.049622
-0.045366
-0.096965
-0.052292
-0.036204
0.024494
-0.045072
-0.047340
0.018942
0.057566
-0.075995
-0.081336
-0.096940
-0.033971
-0.067153
-0.083676
0.049592
-0.061454
-0.217388
-0.097342
-0.061676
-0.086357
-0.097498
-0.109766
-0.159390
-0.241464
-0.161073
-0.184618
0.083238
0.064778
0.097740
0.003706
-0.056007
-0.233692
0.011858
-0.050501
-0.149780
-0.002555
-0.161867
-0.144487
-0.059251
-0.166449
-0.193625
-0.221972
-0.201795
-0.273297
-0.173111
0.140204
0.277858
-0.225522
-0.128769
-0.126152
-0.160983
0.066847
0.042724
-0.001258
-0.026449
-0.055382
-0.091779
-0.085341
-0.101713
-0.090373
-0.153712
-0.135519
-0.110906
-0.081269
-0.123393
-0.100743
-0.094427
-0.091097
0.072663
-0.072233
-0.129695
0.189646
0.232952
0.098229
-0.260441
-0.269349
-0.294048
-0.247143
-0.039430
-0.109965
-0.133373
-0.072958
-0.094777
-0.210368
-0.266846
-0.277444
-0.045835
-0.094130
-0.136750
-0.000954
0.128848
0.055171
0.166866
0.041462
0.003914
0.231791
0.240083
0.126030
0.196641
0.060434
0.015231
-0.040794
-0.090662
0.023737
0.024573
-0.194725
-0.213911
-0.231192
-0.307740
-0.155948
-0.232018
-0.259893
-0.221198
-0.028168
-0.191773
-0.175981
-0.121171
-0.012807
0.137949
0.219221
0.276985
0.325713
-0.002390
0.096693
0.002861
0.090099
0.034861
0.104648
0.029055
0.080223
-0.049364
0.101797
0.046341
0.038477
0.037321
-0.007238
0.103939
-0.030031
0.043798
0.051334
0.063963
0.018524
0.094972
0.080113
0.127923
0.078493
0.130293
0.075102
0.118438
0.052802
0.114737
0.013858
0.115463
-0.054129
0.065450
0.028540
0.082518
-0.028381
0.130598
-0.092001
0.109564
0.054852
0.084370
0.050750
0.114607
0.097571
0.105934
0.082380
0.121937
0.300681
0.297807
0.236669
0.217214
0.146482
0.213820
0.147111
0.057949
-0.057638
-0.160157
-0.130715
-0.092991
-0.087569
-0.058055
0.308902
-0.000311
-0.011662
-0.061391
-0.157153
-0.185429
-0.153002
-0.230477
-0.004903
0.017198
-0.060084
-0.082486
-0.216798
-0.244949
-0.191083
-0.299350
-0.111825
-0.158924
-0.243523
-0.212409
-0.205072
-0.308601
-0.234638
-0.306087
-0.224049
0.121768
0.030414
-0.042570
0.021805
-0.263918
-0.100776
0.167654
-0.241729
-0.318073
-0.325565
-0.057303
0.046719
-0.029146
-0.033944
-0.231898
-0.364287
-0.180251
-0.262780
-0.306778
-0.184036
-0.240992
-0.170778
0.113332
0.122674
0.190992
0.296943
0.177916
0.222863
0.194204
0.116332
-0.018452
-0.159562
-0.102819
-0.021038
-0.167343
-0.227495
-0.162691
-0.200825
-0.271093
-0.219182
-0.277038
-0.277767
-0.249720
-0.240434
-0.268556
-0.224317
-0.237959
-0.094457
0.038646
0.182982
0.246305
-0.298046
-0.279927
0.254986
0.268635
0.230335
0.087799
-0.034727
-0.032795
0.012335
0.006311
-0.000582
0.006118
-0.020237
0.012966
-0.012547
0.000871
-0.011745
-0.025191
-0.022597
-0.022366
-0.044289
-0.057945
-0.032308
0.023269
0.016381
0.011283
0.045794
0.056490
0.061949
0.049941
0.054251
0.032773
0.033751
0.037040
0.017687
0.046539
0.013647
-0.075006
0.057692
-0.014360
0.004884
0.034024
-0.020007
0.049257
0.045431
0.005571
0.001057
-0.039642
-0.090122
0.001115
-0.016295
0.006254
0.007998
-0.051855
-0.079314
-0.089333
-0.108147
-0.089458
-0.074385
-0.119591
-0.116994
-0.113125
-0.093736
-0.066268
-0.052806
-0.033231
0.075467
-0.081505
-0.163471
-0.173977
0.203174
0.190884
0.173067
0.119849
0.127665
0.090287
0.019659
-0.059169
-0.070802
-0.058679
-0.065153
-0.065060
-0.024580
-0.161098
-0.020087
0.212416
-0.127975
-0.333359
-0.287340
-0.223246
0.053194
0.211604
0.138832
0.157193
0.030108
0.066717
-0.083882
-0.105175
0.136734
-0.212694
-0.144723
0.163126
0.178170
0.331924
0.135690
-0.226959
-0.299394
-0.269217
-0.187851
-0.020116
-0.118791
-0.181822
-0.152464
-0.010902
-0.074591
-0.243825
-0.312210
-0.275089
-0.317643
-0.272219
-0.092843
0.195432
0.209282
0.207869
0.185065
0.095331
0.007181
-0.133630
-0.111730
-0.135651
-0.171359
-0.145832
-0.145009
-0.123928
-0.204594
-0.128459
-0.154020
-0.299023
-0.221647
-0.223785
-0.123485
-0.158246
-0.129226
-0.072457
0.043718
0.090541
0.053977
0.070135
0.087262
0.045344
0.082458
0.084487
0.060827
0.073171
0.026111
0.020358
-0.069331
0.142146
0.131312
0.058755
-0.088294
-0.097411
-0.153088
-0.122743
-0.136226
0.024664
0.020990
-0.083598
-0.116847
-0.104493
-0.029899
-0.053519
-0.086645
-0.128049
-0.104416
-0.126608
-0.091589
-0.090751
-0.030781
-0.010593
-0.009032
-0.059926
0.087263
-0.011674
-0.073433
-0.177717
-0.179181
0.118535
-0.001140
-0.020494
-0.043084
-0.057798
-0.056103
-0.073551
-0.088566
-0.113332
-0.075617
-0.064708
-0.092584
-0.074799
-0.110240
-0.045428
-0.047622
0.009990
-0.023007
0.031729
0.014624
0.022415
0.024780
0.015987
0.016497
-0.011884
-0.004338
0.000631
0.008685
0.009451
-0.021457
-0.009722
-0.011166
-0.041086
-0.074469
-0.044071
-0.052503
-0.001254
-0.024795
-0.062101
-0.018456
-0.012656
-0.052965
-0.013806
0.144136
0.260017
-0.045269
-0.123121
-0.181075
-0.033900
0.073631
0.039761
0.033144
0.101309
0.075123
0.117222
-0.006790
-0.075815
-0.017075
0.130603
-0.093523
-0.132876
0.046098
-0.130309
0.096640
0.317561
0.187683
0.078984
-0.233431
-0.275396
-0.232158
-0.164722
-0.111756
-0.059269
-0.002679
0.084318
0.237047
0.118645
-0.166349
-0.185055
-0.280359
-0.317951
-0.327834
-0.215877
-0.131738
-0.134267
0.138921
0.203028
0.204592
0.201994
0.059386
0.035144
-0.077853
-0.128234
-0.143425
-0.100771
-0.120483
-0.094448
-0.105813
0.000234
0.138979
0.096079
0.048681
-0.080063
-0.168243
-0.135619
-0.065574
0.000097
0.060332
0.042498
0.038829
0.020940
0.002977
-0.014127
0.020553
0.023780
0.014361
0.018098
0.026934
-0.129012
-0.158521
-0.061731
-0.075022
-0.102246
-0.102954
-0.103639
-0.064524
-0.007559
-0.069284
0.037102
-0.029210
0.033828
0.057330
-0.034570
-0.116340
-0.116064
-0.054839
0.117252
0.081046
0.039696
-0.061560
-0.058185
0.031859
0.235184
0.067889
0.028203
0.112448
-0.096356
-0.095355
-0.017646
-0.047156
-0.086211
-0.065575
-0.086913
-0.100385
-0.126389
-0.102531
-0.087223
-0.104486
-0.106068
-0.063195
-0.084261
-0.041175
-0.008528
-0.031600
0.007239
-0.014312
-0.004771
0.004905
-0.001522
-0.004600
-0.021819
-0.045272
-0.003443
0.006984
0.003926
-0.034629
-0.053966
-0.070460
0.002367
-0.095252
-0.064817
-0.079251
-0.027073
-0.030811
-0.052259
-0.043530
-0.018224
-0.048890
0.137831
0.062620
-0.135926
-0.037715
-0.066998
-0.068756
-0.063381
-0.029825
0.073561
0.057333
0.021250
-0.030630
-0.049027
-0.046609
0.002347
-0.019651
-0.016954
0.003446
-0.003279
-0.147562
0.169321
0.078104
0.229741
0.077203
-0.023279
-0.217119
-0.249480
-0.041163
-0.096942
0.049394
-0.027928
-0.098973
0.005610
-0.135977
0.093122
0.088363
0.249341
0.198991
0.039988
0.015965
-0.076695
-0.205561
-0.201749
-0.157783
-0.124299
-0.075103
-0.027193
0.072817
0.148903
0.250086
0.286630
0.219930
-0.082038
-0.230006
-0.276956
-0.241801
-0.083896
-0.025356
0.013959
0.138654
0.195433
0.215688
0.044844
0.046920
-0.068654
-0.124800
-0.160524
-0.136508
-0.111092
-0.110037
-0.096829
-0.001145
0.081224
0.106863
0.094284
0.012028
-0.047896
-0.120713
-0.176993
-0.155865
-0.183399
-0.164781
-0.096258
-0.051251
-0.046812
0.008382
-0.034454
-0.032661
-0.079117
-0.058605
-0.049043
-0.024641
-0.005589
-0.001098
-0.087806
-0.059022
-0.066025
-0.057650
-0.051865
0.003735
0.023597
-0.015800
0.045043
-0.004581
0.029498
-0.057177
-0.096784
-0.081039
-0.029275
0.013527
0.020241
0.024646
-0.087748
-0.112178
-0.129098
-0.109346
-0.049303
-0.011480
-0.019572
-0.008638
0.024615
-0.119055
-0.080488
-0.117869
-0.120366
-0.123259
-0.130178
-0.158630
-0.129014
-0.089741
-0.131849
-0.079016
-0.126053
-0.046401
-0.047507
-0.053511
-0.004538
-0.008023
-0.018370
-0.019408
0.001028
0.022662
0.016726
-0.012543
-0.036718
-0.035013
0.003175
0.004035
-0.000878
-0.042649
-0.056691
-0.097491
-0.092778
-0.084681
-0.088672
-0.072540
-0.097234
-0.076482
-0.078090
-0.049489
-0.034427
-0.051899
-0.070261
-0.094934
0.121225
0.188722
0.143029
0.052970
-0.016872
-0.062083
-0.117968
-0.152414
-0.156463
-0.166314
-0.145931
-0.053945
0.003746
0.003803
0.055869
0.051706
0.034353
-0.018936
-0.063282
-0.117669
-0.163636
-0.156775
-0.173654
-0.193842
-0.182278
-0.173035
-0.040415
-0.054516
-0.107094
-0.089334
-0.037351
-0.012526
-0.010561
-0.143033
0.112224
0.021052
-0.018550
0.135643
0.128907
0.105584
0.033218
-0.057465
-0.171330
-0.192060
-0.156732
-0.148268
-0.095885
-0.040903
-0.007781
0.067841
0.090094
0.180177
0.249938
-0.217258
-0.234810
-0.088642
-0.061313
-0.082464
-0.094480
-0.070754
-0.119127
-0.103603
-0.116897
-0.062377
-0.052826
-0.071968
-0.055804
-0.038050
-0.023624
-0.009493
-0.016550
-0.013083
-0.042242
-0.080045
-0.072260
-0.078015
-0.062102
-0.058643
-0.037531
-0.028800
-0.096411
-0.133182
-0.103655
-0.048453
-0.105579
-0.149731
-0.124696
0.010168
-0.118859
-0.126254
-0.140477
-0.138983
-0.145991
-0.168787
-0.132814
-0.133660
-0.138978
-0.124071
-0.082989
-0.081624
-0.027645
-0.024741
-0.015136
0.031147
-0.003180
0.025300
0.004070
0.002790
-0.009765
-0.050590
0.022804
0.002389
0.000557
-0.002164
-0.049091
-0.049733
-0.087348
-0.115110
-0.134097
-0.062313
-0.068167
-0.126930
-0.089182
-0.047860
-0.108413
-0.062055
-0.024657
-0.112263
-0.080673
-0.090150
-0.043765
-0.041541
-0.016299
-0.045469
-0.027349
-0.029085
-0.044200
-0.051550
-0.065876
-0.060499
-0.062575
-0.047301
-0.070411
-0.071278
-0.125385
0.111090
0.065755
-0.012625
-0.143113
-0.122190
-0.107641
-0.071423
0.000359
0.016483
0.037358
0.030012
-0.018072
-0.056617
-0.095313
-0.131758
-0.152796
-0.175010
-0.181000
-0.165219
-0.159610
-0.156049
-0.190154
-0.086051
-0.087515
-0.110855
-0.079495
-0.115281
0.007050
-0.046449
-0.055717
-0.160815
-0.202325
-0.233795
-0.216162
-0.213317
-0.190335
-0.135993
-0.009256
-0.033006
-0.057068
-0.062235
-0.081763
0.069373
0.100028
0.074765
0.057487
0.008164
-0.045586
-0.144089
-0.164134
-0.181439
-0.133863
-0.146192
-0.101731
-0.053589
-0.074087
-0.060176
-0.086219
-0.096610
-0.038185
-0.070681
-0.116816
-0.172061
-0.159007
-0.159623
-0.154003
-0.164698
-0.132952
-0.132532
-0.135777
-0.128167
-0.094383
-0.063667
-0.026146
-0.029267
0.010233
0.021535
0.085217
0.023605
0.022685
0.000132
0.007202
0.064642
0.063632
-0.008234
-0.015277
0.004712
-0.039757
-0.086830
-0.071498
-0.130661
-0.129629
-0.083392
-0.094968
-0.121705
-0.098652
-0.115888
-0.115024
-0.113128
-0.108006
-0.127530
-0.082706
-0.102320
-0.094815
-0.133916
-0.096572
-0.091635
-0.039628
-0.009843
-0.003459
-0.005435
-0.020972
-0.049516
-0.086481
-0.117593
-0.154398
-0.154843
-0.163536
-0.172422
-0.171168
-0.175256
-0.176372
-0.149199
-0.151456
-0.161151
-0.123120
-0.126659
-0.129253
-0.077338
-0.106878
-0.186283
-0.203065
-0.225902
-0.197709
-0.185139
-0.162549
-0.187337
-0.041882
-0.091744
-0.097578
-0.243522
-0.215716
-0.029373
-0.136641
0.147720
-0.070247
-0.184028
-0.149586
-0.247117
0.185629
0.038767
-0.013170
0.002386
-0.118209
-0.130108
-0.165703
-0.126529
-0.116522
-0.095236
-0.061758
-0.149376
-0.157268
-0.210063
-0.186485
-0.169247
-0.171159
-0.162132
-0.174558
-0.076619
-0.066447
-0.030888
-0.040557
0.014798
-0.001907
0.105137
0.023974
-0.001628
-0.006540
0.027563
0.093898
0.028667
-0.062962
0.019299
0.004400
-0.002378
-0.083121
-0.105744
-0.157353
-0.116358
-0.103194
-0.095662
-0.113238
-0.071540
-0.071829
-0.069217
-0.081587
-0.085647
-0.090662
-0.112095
-0.097514
-0.076931
-0.066798
-0.077076
-0.083637
-0.127536
-0.056509
-0.031991
-0.023618
-0.053228
-0.090590
-0.056857
-0.028823
-0.113052
-0.012862
-0.017562
-0.032403
-0.048739
-0.080606
-0.115421
-0.145971
-0.157968
-0.167301
-0.172716
-0.179387
-0.171273
-0.182990
-0.186828
-0.175972
-0.176850
-0.155975
-0.162793
-0.155229
-0.150706
-0.115772
-0.088135
-0.175507
-0.184619
-0.179156
-0.172740
-0.175856
-0.189015
-0.172668
-0.121221
-0.082859
-0.027971
-0.038324
-0.047243
-0.035073
0.058211
-0.035625
-0.014212
0.012214
0.000169
-0.017511
-0.048267
-0.088591
0.019098
0.019053
-0.001054
-0.067976
-0.097319
-0.137629
-0.157596
-0.133721
-0.101373
-0.097115
-0.111664
-0.080795
-0.064524
-0.092684
-0.063414
-0.064176
-0.057176
-0.105230
-0.094598
-0.109590
-0.030873
-0.031696
-0.051570
-0.101933
-0.107125
-0.146428
-0.180377
-0.164599
-0.163019
-0.167622
-0.190475
-0.183436
-0.190632
-0.172182
-0.150342
-0.161615
-0.151913
-0.144947
-0.094093
-0.115040
-0.113773
-0.124246
-0.122006
-0.087082
-0.125645
-0.121274
-0.130821
-0.158379
-0.172402
-0.179141
-0.199460
-0.189983
-0.148810
-0.055863
-0.006869
0.282437
-0.203762
-0.154035
-0.087047
-0.164383
-0.206790
-0.041183
0.290251
0.132492
0.015891
0.005804
-0.040101
-0.085329
-0.095937
-0.130073
-0.110062
-0.133119
-0.127877
-0.142278
-0.178781
-0.160007
-0.173007
-0.172737
-0.173963
-0.119007
-0.080263
-0.037762
-0.033363
0.024956
-0.035633
-0.016569
0.009468
-0.059584
-0.005755
0.022021
-0.148701
-0.167676
0.031673
0.038876
-0.025476
-0.023618
-0.064344
-0.111703
-0.125732
-0.134491
-0.116670
-0.141356
-0.135534
-0.120532
-0.061377
-0.159664
-0.176916
-0.186200
-0.180496
-0.170021
-0.150782
-0.094009
-0.067552
-0.057833
-0.010632
0.054731
0.063608
0.082132
0.021755
-0.059269
-0.042989
-0.044403
-0.121258
-0.050966
0.088110
0.121470
0.011405
-0.024164
-0.062533
-0.116995
-0.129439
-0.171612
-0.120359
-0.113359
-0.113699
-0.159059
-0.117964
-0.118333
-0.142597
-0.053368
-0.125834
-0.163137
-0.168262
-0.160271
-0.170162
-0.105177
-0.019508
0.118423
0.251866
-0.182602
-0.077570
-0.147650
-0.144552
-0.129059
-0.140041
-0.144196
-0.161800
-0.172235
-0.172285
-0.164025
-0.180995
-0.153739
-0.131872
-0.029776
0.039535
0.191356
-0.077754
0.145285
-0.028010
-0.007997
-0.047344
-0.088261
-0.108318
-0.137814
-0.150275
-0.021536
-0.157183
-0.132209
-0.072027
-0.136928
0.163793
0.110119
0.191106
0.102042
0.000052
-0.047763
-0.102391
-0.118424
-0.127217
-0.133001
0.116906
0.108995
-0.023605
-0.039336
-0.064466
-0.112939
-0.166138
-0.051186
-0.046103
-0.085807
-0.135691
-0.145655
-0.172198
-0.098745
-0.064110
-0.071350
-0.168287
-0.135263
-0.140508
-0.031066
0.047070
-0.003949
-0.120778
-0.112851
-0.111088
-0.173594
-0.128187
-0.148175
-0.129254
0.018233
0.013736
-0.148893
-0.036722
-0.167398
-0.200118
-0.205428
-0.138902
-0.175355
-0.142051
-0.127515
-0.087728
-0.060844
-0.037183
-0.152977
-0.132245
-0.113401
-0.123795
-0.108703
-0.116934
-0.099133
-0.096186
-0.149031
-0.164759
-0.142648
-0.060987
-0.120276
-0.126558
-0.137881
SCALARS LE22_SP5(MPa) float 1
LOOKUP_TABLE default
-0.074567
-0.043078
-0.065658
-0.203707
0.093426
-0.025185
-0.104471
0.102940
0.017574
0.090574
0.117746
0.270036
0.287938
0.262639
0.001822
-0.007154
-0.272029
-0.338581
-0.086756
-0.201109
0.132608
0.104116
0.219622
0.105336
-0.071636
0.019978
0.033098
0.301784
0.113622
0.230066
0.212344
-0.075368
-0.287319
-0.140701
-0.123939
-0.000063
0.154852
0.275791
0.303650
0.334270
0.362281
0.328985
0.273127
0.243306
0.105652
0.332664
0.332908
0.213798
-0.006861
0.066159
0.077753
-0.260742
-0.346493
0.159697
-0.021026
-0.164723
-0.099250
-0.128448
-0.161133
-0.179044
-0.396184
-0.102908
-0.042225
-0.208139
-0.291346
-0.304428
-0.075868
-0.467079
-0.105066
-0.006357
-0.191652
-0.114672
0.060644
-0.318945
-0.355260
-0.254670
0.119729
0.117317
0.367048
-0.030768
-0.422893
-0.184103
0.220839
0.067157
-0.212856
-0.268945
-0.127511
-0.269838
-0.206066
0.015852
0.249008
0.235315
-0.022776
-0.249073
-0.270526
0.049641
-0.262828
-0.048438
0.185493
0.052402
0.221237
-0.224112
-0.340682
-0.114355
-0.187231
-0.316395
-0.187837
-0.063798
-0.052401
-0.011843
-0.033314
-0.054620
-0.079062
-0.227454
-0.130878
-0.100688
-0.140756
-0.167322
-0.174996
-0.194652
0.049209
0.161143
0.240662
0.437620
0.337514
0.289031
0.241436
0.101534
0.212651
0.177591
0.244327
-0.029992
-0.069003
-0.143680
0.066756
0.131365
0.119863
0.099653
0.356631
0.274149
0.178156
0.047640
-0.072024
-0.059961
-0.235423
-0.232001
-0.257571
-0.389796
-0.351031
-0.086546
-0.037984
-0.012669
0.341122
0.409659
0.148578
-0.105995
-0.307573
-0.258418
-0.069773
-0.027637
0.073174
-0.402250
-0.047086
0.065601
0.226659
0.309452
0.358189
0.392997
0.090511
-0.217922
-0.196187
-0.354140
-0.346542
-0.061041
0.109131
0.174750
0.247965
0.358238
-0.121902
0.013489
0.090746
0.038988
0.066770
-0.045326
0.300549
0.315063
-0.205108
-0.270436
-0.132333
-0.144593
-0.038259
0.226747
0.323288
0.249569
0.276367
0.253261
0.254901
0.217041
0.148534
0.047976
0.158719
0.155327
0.000893
-0.190741
-0.205971
-0.244043
-0.167948
0.096065
0.035511
-0.013777
0.184239
-0.016475
-0.341664
-0.278798
-0.172188
0.052681
-0.243600
-0.170669
-0.441758
0.153570
-0.316175
-0.332307
-0.140679
0.002640
-0.094001
-0.156678
-0.219441
-0.212485
-0.197299
0.126517
0.300216
0.400869
0.113917
-0.397878
-0.374206
0.061904
0.151575
-0.253104
-0.234144
-0.461433
-0.247000
0.040545
0.096722
0.218787
0.305234
0.167306
-0.192013
-0.399212
-0.404172
-0.220057
-0.101223
-0.108120
0.285015
-0.111238
0.240887
0.130140
-0.024983
0.026416
-0.033568
-0.007419
0.001892
-0.058618
-0.038260
0.047907
0.011546
-0.006683
-0.028977
-0.165840
-0.191471
-0.189227
-0.203921
-0.157628
0.066690
0.252961
0.289453
0.322451
0.465150
0.422682
0.363607
0.315900
0.225246
0.231508
0.214400
0.133772
0.116726
-0.157981
-0.208087
-0.055297
0.199111
0.180555
0.318846
0.402062
0.372991
0.282885
0.079651
-0.031695
-0.068676
-0.151850
-0.159568
-0.295240
-0.393846
-0.437766
-0.052277
-0.058304
0.103508
0.341746
0.443007
0.401372
-0.175180
-0.148470
-0.335027
-0.152811
0.100751
-0.406895
0.066112
0.170715
0.265090
0.342931
0.371565
0.342461
0.097794
-0.212261
-0.254767
-0.369646
-0.312377
-0.001584
0.195341
0.249339
0.284059
0.312101
-0.077326
0.045855
0.093774
0.177912
0.226956
0.083773
0.132758
0.247047
0.200355
-0.015638
-0.217317
-0.142789
-0.098600
0.234331
0.430767
0.264526
0.145948
0.234960
0.143919
0.009666
-0.019202
0.274598
0.028139
-0.048135
-0.022115
-0.181538
-0.331838
-0.450960
-0.318493
0.062869
0.146962
0.088217
0.082129
0.011999
-0.255926
-0.136402
-0.188238
-0.299892
-0.156988
-0.254862
-0.394242
-0.264410
-0.099247
0.070057
0.054227
-0.401354
-0.425020
-0.269067
0.163195
0.317645
0.083509
-0.277533
-0.374130
0.131788
0.422263
-0.185653
-0.313956
-0.222021
0.253794
0.338552
0.289749
0.039572
0.157766
-0.209101
0.017888
0.343478
-0.389057
0.000174
0.021416
0.000680
0.123116
-0.086152
0.172447
0.178688
0.122794
0.090218
0.088886
0.101397
0.097683
0.046126
0.051058
-0.005096
-0.065973
-0.180757
-0.191100
-0.153634
-0.094230
-0.056173
0.167260
0.203093
0.434673
0.411596
0.443834
0.381567
0.321812
0.280197
0.266740
0.210855
0.068354
0.044567
-0.255247
-0.291279
-0.177130
0.071104
0.119471
0.339325
0.351284
0.358113
0.254771
0.044635
-0.046328
-0.065201
-0.143181
-0.011570
-0.105344
-0.233915
-0.304281
-0.025760
0.035913
0.078148
0.283592
0.414146
0.442826
0.334841
0.325193
-0.184680
-0.250482
-0.190364
-0.247900
-0.186789
-0.009828
0.004842
0.166903
0.149105
0.187361
0.211238
0.168072
0.183249
0.085369
-0.026757
0.212097
0.282444
0.201731
0.211248
0.100306
-0.181437
-0.454483
0.010735
-0.048484
-0.074889
-0.181128
-0.121702
0.267919
0.446354
0.321736
-0.153375
0.096168
0.275956
0.311483
0.359279
0.332585
0.369284
0.346008
0.342960
0.348003
0.335014
0.315785
0.322181
0.320652
0.312248
0.288535
0.319495
0.314725
0.364122
0.411314
0.452898
0.446302
0.418605
0.436407
0.429023
0.444336
0.445944
0.439014
0.449720
0.438933
0.419452
0.436287
0.434171
0.395384
0.426628
0.426283
0.369854
0.384004
0.416146
0.391368
0.337854
0.379083
0.352241
0.364031
0.401482
0.321575
0.301876
0.307599
0.312421
0.326492
0.292461
0.300543
0.355907
0.316919
0.321569
0.321026
0.294787
0.283848
0.322925
0.332011
0.356781
0.327402
0.378124
0.366138
0.366574
0.333248
0.352288
0.349592
0.375363
0.347491
0.374966
0.371491
0.377868
0.399409
0.381257
0.353603
0.401092
0.367872
0.364980
0.402795
0.396356
0.369370
0.357197
0.385514
0.381930
0.371423
0.426504
0.410639
0.435559
0.412506
0.400015
0.426853
0.428749
0.446139
0.459175
0.438182
0.456825
0.447042
0.450157
0.440325
0.446111
0.431332
0.437360
0.425695
0.428747
0.436091
0.425709
0.429566
0.441858
0.421355
0.435854
0.428607
0.422305
0.435712
0.441693
0.400949
0.414134
0.393347
0.399872
0.399244
0.405715
0.359907
0.345688
0.363367
0.351762
0.360264
0.283493
0.321603
0.287819
0.268003
0.220099
0.252905
0.228195
0.236461
0.154675
-0.063728
0.004844
-0.046446
-0.156049
-0.182536
-0.028718
-0.016654
0.021975
0.096496
0.120192
0.223834
0.229593
0.278902
0.241170
0.307615
0.288898
0.170141
0.140971
0.053362
0.025422
0.124700
0.046754
-0.044173
0.158500
0.207718
0.190777
0.270617
-0.005401
-0.042195
-0.332372
-0.226941
-0.026580
-0.003344
0.110552
0.182112
0.233593
0.218787
0.149561
0.188051
0.116406
-0.246395
-0.266309
0.425195
0.438061
0.410784
0.405698
0.396615
0.385507
0.391311
0.383576
0.374920
0.359763
0.361217
0.361529
0.362693
0.375292
0.364840
0.398503
0.101132
0.258034
0.268979
0.293782
0.254295
0.114166
-0.201566
0.250938
0.176764
0.082461
-0.039539
0.225577
0.383124
-0.423596
0.143230
0.388106
0.230824
0.186298
-0.043848
0.430647
0.444926
0.414280
0.441111
0.431845
0.443433
0.441483
0.445314
0.449193
0.446248
0.439555
0.444313
0.435797
0.422795
0.428126
0.435187
0.410205
0.402663
0.394614
0.389804
0.389835
0.350417
0.392784
0.355208
0.365650
0.363048
0.304007
0.324035
0.287295
0.286218
0.252855
0.245738
0.303605
0.359386
0.310919
0.296353
0.322023
0.320098
0.275774
0.302465
0.336613
0.335234
0.342765
0.360407
0.361038
0.358514
0.338318
0.352769
0.388213
0.389507
0.376352
0.357251
0.383511
0.391855
0.367723
0.380184
0.409093
0.373916
0.380511
0.400073
0.420740
0.416380
0.406823
0.424602
0.412468
0.398005
0.411894
0.364149
0.409851
0.380663
0.385543
0.425882
0.436235
0.412232
0.471887
0.444465
0.436119
0.447880
0.455639
0.457322
0.479198
0.444529
0.445684
0.464126
0.446413
0.455671
0.459418
0.453411
0.456333
0.438150
0.444494
0.445230
0.422420
0.449819
0.440255
0.416673
0.397283
0.389642
0.395295
0.411309
0.389311
0.337758
0.338273
0.343483
0.326665
0.321126
0.291022
0.297230
0.308303
0.187530
0.198874
0.261273
0.141026
0.072839
-0.044000
-0.081662
0.003619
-0.360123
0.062643
-0.294259
-0.077936
-0.200261
-0.177310
-0.098907
-0.022099
0.190551
0.251078
0.280421
0.129398
0.116562
0.113775
-0.013732
0.107970
0.051960
0.258495
-0.016343
0.189965
-0.000384
0.165937
0.390087
0.350264
0.328458
0.306119
0.119715
-0.063825
0.229793
0.243241
0.225619
0.248174
0.385130
0.427400
0.199250
0.101326
-0.105189
-0.150947
-0.145731
-0.156014
-0.299358
-0.354072
-0.151853
0.141085
0.234905
0.285255
0.211622
0.176020
0.403336
0.441753
0.440287
0.434688
0.429767
0.428053
0.442170
0.444200
0.451238
0.448426
0.444922
0.444593
0.440846
0.429374
0.438439
0.438771
0.409043
0.394746
0.391971
0.384073
0.376069
0.353585
0.372009
0.304717
0.304484
0.318840
0.274836
0.241850
0.203572
0.200151
0.175042
0.167109
0.247285
0.264237
0.313195
0.329090
0.301189
0.320308
0.297200
0.288695
0.329783
0.320806
0.371184
0.332644
0.342136
0.356503
0.374692
0.351390
0.375480
0.351159
0.375275
0.357269
0.374989
0.372196
0.390719
0.381656
0.393684
0.391180
0.400033
0.390140
0.392716
0.423841
0.410785
0.399883
0.391604
0.409979
0.384129
0.382926
0.343827
0.380656
0.378408
0.381099
0.415473
0.398164
0.467381
0.451735
0.435784
0.458207
0.449133
0.450842
0.462797
0.443168
0.453967
0.463226
0.457253
0.453565
0.456564
0.464650
0.451552
0.443529
0.442252
0.437135
0.425498
0.429536
0.426568
0.407127
0.370988
0.420934
0.389777
0.368271
0.393557
0.316803
0.319938
0.327461
0.314191
0.311007
0.324000
0.244543
0.268045
0.193643
0.216837
0.231545
0.186558
0.035522
-0.150294
-0.261400
-0.252243
-0.269932
-0.080168
-0.131375
-0.140618
-0.277935
-0.226161
-0.095541
0.018962
0.178866
0.048717
-0.100846
-0.068958
-0.060575
0.094954
0.186509
-0.001668
0.037318
0.054250
-0.201364
0.425610
0.434041
0.439051
0.433500
0.428977
0.424228
0.416811
0.407448
0.400872
0.396457
0.396070
0.398049
0.403756
0.003197
0.044194
0.167215
-0.087269
0.105395
0.111383
-0.019162
0.008509
-0.031196
-0.059415
-0.258686
-0.094266
-0.108221
-0.082981
-0.038583
-0.256288
-0.040130
0.219240
0.316852
0.392813
0.442649
0.444369
0.238540
-0.119807
-0.259534
-0.421935
-0.299836
0.083374
0.234216
0.295170
0.334952
0.349315
0.080714
0.201366
0.254867
0.293322
0.365496
0.222952
0.331227
0.351162
0.389047
0.241635
-0.044292
-0.012675
0.256397
0.425612
0.446741
0.460624
0.460464
0.167157
0.152745
0.093515
0.154783
0.109349
-0.016203
-0.018555
0.157047
-0.072690
-0.221031
-0.071726
0.156310
-0.105665
-0.032889
-0.293796
-0.184625
0.078486
0.275039
-0.216981
-0.426576
0.088164
-0.261497
-0.173477
0.166136
-0.183330
-0.290392
-0.328181
-0.222981
-0.266522
-0.225959
-0.351158
-0.059996
0.163101
0.194061
0.168377
0.275517
0.389221
0.352966
0.195748
-0.058121
-0.063805
-0.163311
0.407273
0.314033
0.449214
0.299605
-0.188132
-0.083596
-0.193260
-0.137615
-0.007199
0.134984
0.152834
0.271187
0.312148
0.372785
0.425075
0.392395
0.444950
0.419588
0.208274
-0.028345
-0.075921
-0.158404
-0.050585
0.039382
-0.430220
-0.022519
0.034320
0.052732
0.142707
0.220724
0.203714
0.177101
0.165690
0.168120
0.145901
0.111882
0.078854
0.070134
0.028884
-0.058870
-0.148979
-0.161730
-0.116072
-0.098052
0.081995
0.137011
0.262657
0.358364
0.386664
0.393540
0.387435
0.338534
0.323398
0.305875
0.244676
0.081160
0.068285
-0.170182
-0.221540
-0.142699
0.031467
0.092702
0.251626
0.360349
0.354832
0.306652
0.082382
-0.198703
-0.085064
0.015847
-0.001432
0.034944
-0.130387
-0.167335
-0.051665
0.040862
0.064251
0.174529
0.414719
0.406429
0.351868
0.187494
-0.051814
-0.046131
0.305453
0.038860
0.133210
0.014968
-0.038706
-0.100589
-0.105651
-0.140326
-0.281752
0.040815
-0.464067
-0.322458
-0.159523
-0.112207
0.057966
0.279081
0.350705
0.416371
0.435631
0.378072
0.284963
0.016791
-0.063176
-0.236963
-0.170463
0.167015
0.280361
0.326660
0.347438
0.316349
0.195253
0.256414
0.350409
0.363725
0.381177
0.406761
0.406439
0.464322
-0.001370
0.271559
0.418588
0.436554
0.449598
0.335998
0.309232
0.184653
0.087730
0.074842
0.114481
0.130156
0.190199
0.014081
-0.149440
-0.212982
0.000303
0.180216
0.239786
0.085582
-0.153274
-0.069930
-0.103294
-0.012034
0.069388
0.453273
0.301450
0.249011
-0.251469
-0.338260
-0.236970
-0.323641
-0.246867
-0.312359
-0.250538
-0.087282
-0.008361
0.143788
0.175335
0.136555
0.218392
0.286216
0.380802
0.300811
0.179165
-0.102543
-0.139440
0.019902
0.299394
0.380075
0.416004
0.429710
0.452861
0.350273
0.086450
-0.033106
-0.110628
-0.138013
0.005566
0.092596
0.227384
0.248912
0.264982
0.348129
0.387382
0.397006
0.415848
0.370249
0.220204
0.215189
0.266983
0.372003
0.028732
-0.052655
0.094151
-0.146352
0.093228
-0.150254
-0.032953
0.053521
0.124187
0.108868
-0.063411
-0.014297
0.079173
-0.079345
-0.279548
-0.318992
-0.344400
-0.312212
-0.045006
0.253519
0.286913
0.320966
0.322022
0.433905
0.457923
0.394783
0.367276
0.353432
0.221192
0.123207
0.246460
0.217974
0.277716
0.311103
0.387587
0.462910
0.435826
0.433432
0.428249
0.414292
0.425107
0.440317
0.448405
0.457469
0.451787
0.447801
0.442932
0.438293
0.433104
0.435385
0.432269
0.399559
0.368134
0.383181
0.371293
0.375537
0.356003
0.309942
0.295040
0.288002
0.223660
0.180995
0.130493
0.082195
0.057448
0.096830
0.203611
0.269446
0.285041
0.318170
0.342339
0.313201
0.312348
0.315863
0.286083
0.292165
0.367129
0.341766
0.350657
0.325204
0.351661
0.338399
0.362436
0.361119
0.393659
0.368175
0.381535
0.361431
0.391599
0.387572
0.379378
0.400360
0.382062
0.398385
0.401642
0.426406
0.435885
0.416675
0.395380
0.391631
0.360074
0.358965
0.316452
0.346919
0.319343
0.370235
0.400988
0.411366
0.449396
0.459156
0.438239
0.443055
0.456388
0.458554
0.457668
0.454069
0.450123
0.458204
0.462148
0.440255
0.465628
0.464062
0.431863
0.435682
0.456712
0.439103
0.433818
0.434854
0.412706
0.403460
0.389432
0.407163
0.366342
0.403995
0.324196
0.332757
0.331407
0.314447
0.286423
0.284091
0.303667
0.280099
0.253381
0.206366
0.256011
0.250341
0.140369
0.011869
-0.144569
-0.271749
-0.370028
-0.536216
-0.438445
-0.115748
0.074428
0.228965
0.455930
0.451283
0.442790
0.442062
0.435622
0.431614
0.429531
0.424668
0.422712
0.420557
0.427863
0.016958
0.149514
0.217800
0.256352
0.184245
0.218349
0.206460
0.181407
0.151691
0.133528
0.066953
0.025219
-0.018891
-0.063608
-0.064757
-0.024328
0.052959
0.179359
0.284853
0.328623
0.384169
0.373589
0.368881
0.322104
0.261827
0.164726
0.166172
-0.141370
-0.187174
-0.112072
0.026787
0.082777
0.210640
0.282244
0.338760
0.280817
0.155254
-0.017205
0.173069
0.211953
0.164529
0.255419
0.000673
-0.086882
-0.152857
-0.113388
-0.372992
-0.321457
-0.344735
-0.224308
0.040322
0.303048
0.297822
0.304797
0.426061
0.448135
0.425051
0.384065
0.381958
0.311224
0.222815
0.241462
0.309772
0.333989
0.365841
0.365195
0.446088
-0.006065
-0.051689
-0.026454
0.368956
0.214434
0.079307
0.290543
0.068363
0.171353
0.256658
0.262635
0.215115
0.212112
0.196138
0.197048
0.193640
0.153316
0.105358
0.074154
0.042535
0.051432
0.087047
0.188338
0.286394
0.357163
0.379197
0.387540
0.369541
0.369393
0.329750
0.279470
0.221771
-0.128931
-0.117174
0.070204
0.140151
0.186035
0.241553
0.292670
0.309142
0.218950
0.070118
0.223605
0.172085
0.013828
-0.051393
0.151928
0.185524
0.123833
-0.057501
0.010883
0.050306
0.113319
0.186587
0.205081
0.240507
0.315353
0.368727
0.319879
0.388575
0.323691
0.016663
0.255158
0.071810
0.041732
-0.081680
0.453058
0.450866
0.446550
0.440737
0.435778
0.429872
0.429097
0.427755
0.437515
0.425827
0.420607
0.417345
0.412407
0.421610
0.431358
0.452760
0.460245
0.451971
0.451909
0.452157
0.429638
0.433570
0.412794
0.385767
0.349272
0.342672
0.394290
0.350560
0.341167
0.311331
0.258110
0.200151
0.120956
0.071769
0.019364
-0.015763
0.058938
0.199450
0.255628
0.314643
0.314400
0.360736
0.322618
0.302483
0.319874
0.296340
0.285536
0.326690
0.340264
0.350819
0.336411
0.337875
0.329971
0.359775
0.359535
0.383563
0.357711
0.390773
0.385048
0.398768
0.400042
0.411419
0.386430
0.392826
0.385433
0.388251
0.412191
0.413314
0.404716
0.382738
0.384202
0.376176
0.362882
0.309943
0.282818
0.305389
0.350924
0.388595
0.418556
0.431657
0.461081
0.446166
0.453918
0.443668
0.449746
0.463689
0.451921
0.444850
0.458002
0.454992
0.450116
0.449712
0.461287
0.437080
0.456219
0.439203
0.445675
0.447667
0.437661
0.423340
0.378382
0.386986
0.378600
0.374042
0.383905
0.356790
0.361497
0.360782
0.276093
0.281273
0.295812
0.297419
0.285993
0.252122
0.271545
0.234778
0.240780
0.170390
0.065984
-0.049264
-0.169904
-0.322654
-0.343119
-0.502608
-0.214037
0.093314
0.087901
0.082018
0.447805
0.482829
0.393628
0.072804
0.307732
0.416305
0.435173
0.437305
0.356289
0.260750
0.186884
0.050832
-0.077399
0.053223
0.074795
0.121634
0.220626
0.143045
0.116592
-0.034525
0.027742
0.036978
-0.132857
-0.085404
-0.072183
-0.121467
0.115953
0.334181
0.195022
0.105236
-0.052054
-0.198406
-0.340006
-0.254289
-0.262047
-0.240219
-0.182091
-0.149401
-0.097169
-0.076995
-0.055547
-0.064196
0.171750
0.063927
0.017028
0.189348
-0.228715
-0.296112
-0.204123
-0.184422
-0.085957
0.051265
0.135951
0.128971
0.205605
0.295763
0.307374
0.377447
0.325071
0.274774
0.007723
-0.038755
0.056960
0.260768
0.340631
0.396881
0.429661
0.404668
0.423449
0.404373
0.271617
0.116252
-0.030603
-0.088908
-0.014083
0.021579
0.032270
0.172834
0.274617
0.298516
0.312152
0.356465
0.381557
0.398454
0.393274
0.317755
0.230676
0.145168
0.050934
0.021342
-0.290826
-0.067403
0.193424
0.284929
0.309347
0.412192
0.431378
0.433904
0.404451
-0.049485
0.394546
0.384476
0.399545
0.389177
0.348560
0.299003
0.216912
0.170950
0.055160
-0.062797
-0.088640
-0.053732
0.048015
0.090722
0.157808
0.235927
0.269795
0.307875
0.290504
0.142583
0.124290
0.192040
0.193863
0.204145
0.181302
0.138349
-0.058939
0.009268
0.063054
0.059499
0.080882
0.128698
0.201457
0.237400
0.289289
0.365214
0.360034
0.413670
0.335674
0.245115
-0.139214
0.026375
0.137286
0.123388
0.190376
0.090386
0.211279
0.174012
0.057595
0.218377
0.393868
0.295912
0.017022
-0.107024
-0.371041
0.293116
-0.427190
-0.137613
-0.164854
-0.234139
-0.055212
-0.163027
-0.303932
-0.341137
-0.272178
-0.319564
-0.311359
0.173448
0.287306
0.378136
0.415151
0.411947
0.341800
0.188984
0.012599
-0.060769
-0.154169
-0.090807
0.179634
0.298227
0.353171
0.354992
0.308365
0.290245
0.335792
0.390884
0.412728
0.410509
0.283270
0.276809
0.292352
0.338859
0.370501
0.394148
0.398073
0.402785
0.419413
0.421030
0.422858
0.425421
0.425438
0.425093
0.427198
0.420433
0.411440
0.416580
0.400711
0.410835
0.419473
0.424041
0.427573
0.440448
0.468373
0.445927
0.431021
0.454976
0.374633
0.323193
0.345956
0.330060
0.360247
0.354551
0.325170
0.281328
0.225551
0.161746
0.095811
0.087589
0.002611
-0.040954
0.079070
0.244435
0.290100
0.326036
0.316940
0.330020
0.320970
0.297191
0.324167
0.308699
0.300736
0.301687
0.328041
0.348130
0.336143
0.326882
0.321139
0.363202
0.371559
0.376736
0.364168
0.362070
0.363272
0.420235
0.385814
0.387043
0.384594
0.407252
0.399580
0.405033
0.412596
0.415665
0.403602
0.389449
0.370972
0.354145
0.331362
0.302676
0.249853
0.291222
0.343554
0.381557
0.413533
0.437985
0.444701
0.453205
0.453023
0.453740
0.450088
0.452780
0.447228
0.453348
0.458025
0.451416
0.448900
0.448212
0.446335
0.465764
0.442312
0.452316
0.449662
0.436989
0.416723
0.405740
0.402290
0.404571
0.388752
0.413222
0.394795
0.378351
0.358941
0.316069
0.317207
0.298432
0.304298
0.272966
0.275751
0.284393
0.253965
0.247738
0.166396
0.116913
0.057027
-0.030687
-0.086802
-0.173678
-0.093120
-0.117145
-0.265680
0.459249
0.451072
-0.110639
-0.119581
-0.136937
-0.225661
-0.045721
-0.007588
0.059311
0.099429
0.214479
0.158812
0.065894
-0.046313
-0.041884
0.186956
0.064042
0.371721
0.369117
0.361671
0.373270
0.400738
0.347299
0.297947
0.240849
0.231553
0.137624
0.016187
-0.076030
-0.038779
0.015595
0.003622
0.134816
0.139426
0.246015
0.296955
0.320370
0.304092
0.167271
0.212359
0.192843
0.182339
0.211347
0.214615
0.150245
0.092298
0.000012
0.068930
0.093869
0.144745
0.166214
0.206183
0.252484
0.265569
0.289511
0.331348
0.265289
-0.257336
-0.319151
-0.404487
-0.126915
0.321648
0.375199
0.394076
0.381872
0.311983
0.167490
0.011293
-0.027403
-0.007876
0.058599
0.215105
0.323202
0.348661
0.372862
0.357782
0.361670
0.419419
0.452141
0.472635
0.487730
-0.082143
0.163149
0.293098
0.371870
0.404989
0.401391
0.406785
0.373370
0.329306
0.391635
0.347037
0.317602
0.298400
0.334058
0.361162
0.376438
0.396376
0.414101
0.408783
0.342222
0.300950
0.056031
-0.002567
0.102841
0.237457
0.337847
0.343945
0.392861
0.426073
0.422223
0.402895
0.393176
0.348491
0.231447
0.138617
-0.013506
-0.052159
0.028359
-0.019228
0.036389
0.125478
0.242874
0.330448
0.327706
0.345798
0.354190
0.377259
0.397861
0.413973
0.418882
0.424422
0.423677
0.420210
0.426636
0.422146
0.426987
0.398967
0.402273
0.392502
0.410012
0.426879
0.452293
0.454877
0.432601
0.433666
0.367376
0.340499
0.347052
0.351013
0.359685
0.355314
0.315208
0.284386
0.228323
0.188604
0.190600
0.180618
0.183787
0.037040
0.102808
0.305201
0.297082
0.305157
0.303721
0.311585
0.317457
0.303129
0.295780
0.303771
0.336004
0.296145
0.303577
0.336578
0.337954
0.319924
0.332280
0.362034
0.353401
0.345434
0.377384
0.343598
0.371419
0.399688
0.398036
0.371841
0.409080
0.397028
0.410732
0.411429
0.425105
0.418944
0.394524
0.382835
0.362248
0.333367
0.285709
0.244475
0.235443
0.295385
0.333853
0.371474
0.408443
0.427660
0.443316
0.452767
0.458818
0.453408
0.459715
0.447615
0.447605
0.451957
0.458974
0.444910
0.449418
0.447307
0.454357
0.448124
0.449115
0.448664
0.455517
0.466106
0.459962
0.457777
0.446925
0.453124
0.412709
0.410862
0.414206
0.404741
0.403919
0.418921
0.410697
0.380430
0.346141
0.337591
0.314755
0.337023
0.308290
0.321983
0.277280
0.302448
0.258552
0.254426
0.203485
0.185060
0.101227
0.054551
-0.008822
-0.025691
-0.136537
0.009820
0.305342
0.327416
0.361364
0.370700
0.390099
0.388341
0.321588
0.282292
0.238169
0.218573
0.154503
0.066474
-0.044474
0.020076
0.073664
0.179411
0.206691
0.177614
0.275104
0.300726
0.278710
0.292380
0.220001
0.223383
0.221126
0.213596
0.207573
0.198595
0.209304
0.122755
0.089606
0.016500
0.049986
0.082874
0.106299
0.138977
0.184922
0.213248
0.245356
0.288227
0.321625
0.290121
0.354706
0.330130
0.154655
0.133189
0.159092
0.055393
-0.062090
-0.017681
-0.002978
0.105671
0.260948
0.172584
0.114824
-0.125573
-0.064981
0.050303
-0.034135
0.156359
0.319274
0.303472
0.303046
0.212325
0.272742
0.008166
0.093596
0.137250
0.226548
0.198744
0.203102
0.201442
0.212644
0.213136
0.191358
0.159215
0.130996
0.095299
0.102525
0.151178
0.219899
0.387747
0.446296
0.451332
0.463980
0.357146
0.229255
0.134336
0.109672
0.031373
-0.042632
0.059863
0.097041
0.200961
0.268671
0.342740
0.327633
0.426274
0.386829
0.336264
0.221335
0.135164
0.312538
0.410122
0.437235
0.427172
0.359341
0.265280
0.182124
0.145717
0.059790
0.050792
0.313192
0.216375
0.184198
0.175200
0.110601
0.139877
-0.069410
-0.043470
-0.172528
-0.097575
0.247976
0.073750
0.366207
0.325523
0.319233
0.328958
0.343152
0.365100
0.385947
0.403376
0.416609
0.324347
0.129115
0.055289
0.147499
0.243994
0.315549
0.353435
0.361909
0.424702
0.392371
0.430475
0.395385
0.395822
0.376920
0.333792
0.249982
0.053021
-0.021069
-0.008223
-0.051717
-0.072126
-0.007894
0.107422
0.090477
0.066970
0.159747
0.149956
0.096067
0.086892
-0.091695
-0.158846
0.418934
0.421616
0.421599
0.416713
0.415632
0.363379
0.467799
0.459964
0.439159
0.453319
0.305073
0.309264
0.347085
0.357007
0.353556
0.344209
0.322319
0.298458
0.259228
0.235733
0.207294
0.193642
0.256553
0.198378
0.230627
0.286365
0.300929
0.271912
0.277189
0.292472
0.289719
0.283063
0.272782
0.269742
0.313515
0.331694
0.292049
0.325579
0.339308
0.332947
0.320964
0.357329
0.346873
0.329534
0.358664
0.338577
0.379064
0.379826
0.406698
0.379008
0.414085
0.393600
0.417056
0.414447
0.425350
0.415435
0.398835
0.382225
0.364573
0.329385
0.273432
0.212011
0.203094
0.310699
0.322463
0.358150
0.391677
0.421675
0.438557
0.444283
0.458968
0.452013
0.185327
0.408398
0.415859
0.419345
0.413904
0.412710
0.352459
0.337278
0.369763
0.496609
0.386944
0.454604
0.369382
0.394512
0.376838
0.382845
0.370072
0.351666
0.322001
0.317620
0.299301
0.237137
0.149413
0.362468
0.333818
0.197688
0.323264
0.319729
0.318371
0.277674
0.276849
0.277660
0.272195
0.280450
0.269082
0.277466
0.306594
0.327480
0.292349
0.306956
0.335401
0.325237
0.331811
0.361093
0.315661
0.327904
0.347538
0.367147
0.364625
0.388004
0.391570
0.395895
0.421057
0.410204
0.421585
0.414176
0.405759
0.392183
0.392591
0.375050
0.358954
0.334225
0.332435
0.224459
0.271611
0.405845
0.386375
0.397331
0.418266
0.434877
0.447220
0.455760
0.447918
0.452977
0.421505
0.427738
0.481613
0.442746
0.419930
0.328859
0.284133
0.270870
0.180890
0.311951
0.396992
0.435133
0.379913
0.373756
0.348096
0.287800
0.220491
0.174626
0.083691
0.064937
0.022734
0.049060
0.125226
0.202639
0.129889
0.124348
0.003331
0.023854
0.080891
0.134288
0.121476
0.098162
0.061517
-0.040941
0.089670
0.421236
0.158770
0.009314
0.100929
0.229570
0.262999
0.163742
0.214388
0.291803
0.338697
0.355115
0.405073
0.438410
0.451352
0.456349
0.399765
0.306711
0.254096
0.202640
0.198901
0.195955
0.165099
-0.011237
-0.039420
-0.044495
-0.018761
0.075529
0.205477
0.270019
0.340585
0.369241
0.370494
0.345408
0.288838
0.170614
0.088151
0.015639
0.059223
0.146267
0.245953
0.333122
0.371342
0.399476
0.411210
0.436374
0.458261
0.466181
0.479321
0.448320
0.349743
0.306790
0.454132
0.439872
0.403999
0.396180
0.396087
0.400536
0.393516
0.383672
0.366343
0.333168
0.375786
0.339031
0.244647
0.182646
0.180317
0.276882
0.135112
0.209109
0.275867
0.260841
0.259137
0.267232
0.263727
0.287088
0.278770
0.263210
0.257428
0.298947
0.301949
0.283984
0.306091
0.341115
0.334625
0.322958
0.340248
0.319888
0.325674
0.353467
0.365511
0.356489
0.369018
0.386043
0.386985
0.413126
0.423220
0.417453
0.397983
0.402385
0.402814
0.389415
0.376795
0.354481
0.339243
0.294231
0.286897
0.367406
0.360164
0.381912
0.394007
0.412258
0.426443
0.445220
0.453306
0.451676
0.444293
0.451256
0.458457
0.451481
0.442308
0.448745
0.446863
0.454848
0.444729
0.449431
0.457954
0.460355
0.453148
0.466614
0.451311
0.447556
0.446634
0.419419
0.423850
0.411493
0.423267
0.409888
0.430402
0.403740
0.380505
0.362179
0.361601
0.307579
0.352473
0.337873
0.307143
0.304823
0.283676
0.263907
0.230578
0.204308
0.181043
0.107187
0.026350
-0.034500
-0.029849
0.284459
0.373077
-0.061393
-0.026408
0.055901
0.096588
0.100818
0.234312
0.302151
0.355565
0.340191
0.148425
0.175088
0.245092
0.305947
0.342270
0.352823
0.393482
0.357005
0.393293
0.407127
0.395147
0.379250
0.371845
0.330372
0.245105
0.015735
-0.028935
0.040142
0.018629
0.046272
0.152470
0.234500
0.285673
0.322416
0.350702
0.338756
0.326255
0.339458
0.323981
0.220501
0.272045
0.192663
0.250160
0.206790
0.219033
0.187107
0.188390
0.206622
0.212281
0.214305
0.199139
0.174914
0.148980
0.183817
0.233527
0.288707
0.446349
0.446966
0.452982
0.446587
0.454734
0.447542
0.455130
0.460822
0.460417
0.455278
0.469000
0.467016
0.444939
0.433277
0.425757
0.421102
0.419597
0.430547
0.416095
0.418351
0.402456
0.374113
0.364418
0.333088
0.337527
0.353442
0.330598
0.306205
0.287887
0.287022
0.254943
0.228476
0.217230
0.167191
0.106183
0.037338
-0.034355
-0.085328
0.465746
0.464149
0.423972
0.401433
0.350197
0.300069
0.267312
0.236857
0.324249
0.405866
0.424398
0.376206
0.366830
0.299128
0.309362
0.229543
0.190884
0.136645
0.109255
0.093531
0.066646
0.082030
0.144170
0.166491
0.166451
0.087592
0.058273
0.039659
0.061996
0.100846
0.145292
0.164849
0.186941
0.230357
0.243359
0.279001
0.319901
0.346987
0.402165
0.399458
0.385480
0.203812
0.214097
0.135032
0.277863
0.249715
0.352975
0.247797
0.236879
0.317023
0.332605
0.323719
0.359117
0.395089
0.420132
0.016762
0.124166
0.170732
0.196289
0.270287
0.349674
0.301170
0.338534
0.317698
0.326043
0.347016
0.369469
0.387487
0.402594
0.406333
0.411531
0.418220
-0.033063
0.011872
0.040725
0.043096
0.112435
0.162261
0.168964
0.229277
0.290229
0.294684
0.269175
0.314378
0.331308
0.310417
0.214095
0.172540
0.197327
0.221590
0.280659
0.312297
0.314782
0.309671
0.314578
0.308834
0.190007
0.245600
0.266443
0.317025
0.374364
0.390675
0.409131
0.391712
0.375966
0.365911
0.360654
0.357960
0.357079
0.353255
-0.045935
-0.005446
0.042124
0.051019
0.063505
0.158824
0.226976
0.248438
0.329677
0.303297
0.330769
0.345105
0.333523
0.342193
0.301867
0.132733
0.119814
0.123141
0.143267
0.142207
0.135931
0.144363
0.187070
0.201882
0.241193
0.242460
0.290063
0.285774
0.313076
0.320205
0.222052
0.347719
0.255475
0.077582
0.189793
0.263992
0.269178
0.030716
-0.042952
0.221405
0.218437
0.230759
0.226403
0.226702
0.211667
0.227694
0.276239
0.321438
0.355378
0.374838
0.366424
0.397873
0.378797
0.352616
0.307407
0.281573
0.224249
0.167933
0.100883
0.051192
0.017100
0.056237
0.132388
0.169177
0.287846
0.279734
0.311467
0.326764
0.321217
0.273069
0.250559
0.268846
0.230049
0.190892
0.190852
0.211763
0.217465
0.357066
0.336203
0.336957
0.275561
0.186376
0.142556
0.086882
0.130357
0.214822
0.285559
0.386111
0.409101
0.429625
0.449193
0.467919
0.476630
0.400614
0.386741
-0.019296
0.032056
0.060483
0.073975
0.061309
0.131232
0.148306
0.130190
0.191343
0.232456
0.257272
0.306862
0.324276
0.269643
0.242098
0.250803
0.261120
0.240709
0.230546
0.235785
0.249893
0.266573
0.323638
0.333961
0.348797
0.367807
0.382943
0.356768
0.387026
0.361347
0.298797
0.268964
0.299466
0.235327
0.112595
0.048397
0.030032
0.064019
0.103390
0.153912
0.225995
0.211822
0.264121
0.286966
0.284800
0.267760
0.274709
0.236037
0.257411
0.235500
0.223125
0.222147
0.199427
0.204642
0.403873
0.335295
0.297527
0.299892
0.259923
0.233955
0.264246
0.285053
0.472242
0.456782
0.423860
0.408849
0.376458
0.341640
0.245504
0.294146
0.335871
0.403020
0.415830
0.384763
0.363232
0.336015
0.278836
0.295319
0.237559
0.191145
0.181159
0.164568
0.153972
0.137155
0.138266
0.172271
0.148654
0.092233
0.340717
0.344904
0.351534
0.320930
0.319372
0.246362
0.273283
0.292725
0.373864
0.394365
0.403235
0.411250
0.426414
0.412218
0.415088
0.362681
0.364472
0.359310
0.417138
0.365691
-0.028491
0.037771
0.083022
0.091934
0.134991
0.197405
0.260779
0.294026
0.292780
0.315867
0.326783
0.323459
0.309698
0.328221
0.312903
0.297945
0.455257
0.453164
0.451713
0.451635
0.449579
0.454514
0.448097
0.461897
0.456286
0.466761
0.469889
0.446839
0.435018
0.418141
0.418913
0.441488
0.438117
0.429450
0.432622
0.394293
0.380426
0.363892
0.330377
0.353447
0.344106
0.328498
0.309146
0.302346
0.305767
0.278078
0.253835
0.250131
0.164438
0.136112
0.069664
-0.031052
-0.023162
0.353159
0.333618
0.353584
0.369649
0.390603
0.414629
0.429514
0.438526
-0.059598
0.079337
0.152949
0.258412
0.254176
0.296797
0.328930
0.357966
0.371268
0.386429
0.433276
0.421988
0.188268
0.245948
0.294365
0.318678
0.360433
0.363096
0.364468
0.318418
0.334919
0.349833
0.362355
0.369926
0.374528
0.385244
0.394714
0.366106
0.337133
0.290622
0.282375
0.307172
0.310527
0.288508
0.225832
0.279680
0.342020
0.316376
0.354359
0.305478
0.326695
0.308140
0.290816
0.225253
0.159654
0.165977
0.196918
0.241971
0.318939
0.386257
0.405856
0.403980
0.403634
0.406333
0.431071
0.459222
0.468895
0.473778
0.105134
0.129296
0.099069
0.093992
0.069526
-0.015892
0.375528
0.386798
0.431345
0.434728
0.445313
0.446794
0.207456
0.014842
0.252326
0.179966
0.220286
0.249764
0.271890
0.259122
0.257700
0.288263
0.294347
0.280245
0.281285
0.294435
0.325336
0.315708
0.292635
0.343898
0.322382
0.313845
0.321039
0.360831
0.345746
0.353393
0.343426
0.362716
0.372023
0.371156
0.382281
0.417568
0.415634
0.419701
0.428789
0.418637
0.342557
0.353836
0.363359
0.373514
0.359885
0.343018
0.321335
0.308957
0.322748
0.321055
0.396390
0.409275
0.407192
0.408507
0.419137
0.416981
0.451954
0.396376
0.360503
0.353983
0.385452
0.384008
0.263267
0.048591
-0.033248
0.047542
0.084187
0.049305
0.122730
0.246459
0.259205
0.310966
0.325536
0.331463
0.336973
0.333478
0.313800
0.307403
0.295619
0.277306
0.294964
0.359436
0.369639
0.375319
0.373823
0.367895
0.360522
0.362421
0.278214
0.263688
0.298822
0.294195
0.359697
0.338798
0.317680
0.392769
0.362471
0.364810
0.366436
0.372800
0.383053
0.149075
0.135969
0.127284
0.156922
0.163149
0.196057
0.211992
0.210144
0.229913
0.239192
0.271891
0.274318
0.277469
0.257322
0.135436
0.317040
0.258945
0.283227
0.452751
0.460673
0.126249
0.131240
0.167778
0.148247
0.202897
0.196189
0.199337
0.257910
0.294329
0.298430
0.448954
0.455432
0.442816
0.430695
0.411514
0.411332
0.351181
0.325175
0.368079
0.411376
0.424193
0.390521
0.390648
0.357538
0.295320
0.312031
0.318844
0.288440
0.246423
0.217144
0.217887
0.200814
0.183956
0.159774
0.146355
0.452746
0.450806
0.459792
0.451646
0.451083
0.451287
0.447560
0.461797
0.462368
0.450091
0.463696
0.452757
0.465401
0.466241
0.477730
0.443947
0.428204
0.418913
0.431754
0.439733
0.439218
0.437635
0.416016
0.410802
0.396629
0.365183
0.348815
0.342464
0.334729
0.335399
0.310280
0.301417
0.325119
0.286569
0.309524
0.294589
0.336347
0.298835
0.291566
0.298243
0.302953
0.258092
0.196284
0.196376
0.219135
0.288169
0.449411
0.455061
0.459685
0.411037
0.407606
0.408372
0.400003
0.407153
0.376326
0.405718
0.393487
0.333551
0.337411
0.371467
0.406300
0.410136
0.448736
0.449964
0.448619
0.454209
0.453862
0.459033
0.453390
0.452455
0.452642
0.450837
0.454551
0.433318
0.418399
0.355653
0.370548
0.148019
0.143316
0.274895
0.281776
0.273718
0.259416
0.255720
0.272179
0.281976
0.320155
0.326240
0.346133
0.374641
0.369854
0.367782
0.372111
0.386024
0.306092
0.330548
0.282349
0.252240
0.115418
0.185683
0.213533
0.284632
0.305755
0.309068
0.298310
0.266058
0.302664
0.256245
0.282858
0.241272
0.243141
0.228234
0.218366
0.448705
0.449811
0.466088
0.458888
0.444537
0.463293
0.467365
0.464454
0.444375
0.435389
0.415897
0.446124
0.421534
0.446518
0.437903
0.412533
0.427757
0.366072
0.366390
0.352638
0.346864
0.333341
0.326138
0.318323
0.317224
0.337020
0.313011
0.319690
0.339067
0.369893
0.405711
0.384662
0.371053
0.349286
0.349899
0.328164
0.361171
0.343581
0.398897
0.418368
0.422738
0.415552
0.409939
0.413904
0.432209
0.398979
0.429259
0.400233
0.357113
0.340097
0.386901
0.468524
0.260503
0.138782
0.043918
0.065877
0.082816
0.126138
0.138241
0.229768
0.259385
0.299356
0.281591
0.289287
0.264374
0.256678
0.285125
0.263685
0.263885
0.285576
0.296470
0.313281
0.336805
0.309272
0.345824
0.316359
0.298384
0.319507
0.361959
0.342235
0.326936
0.341726
0.362660
0.394901
0.377981
0.365671
0.401226
0.429999
0.431865
0.432353
0.270748
0.202514
0.284973
0.266245
0.273428
0.262452
0.258115
0.237114
0.238146
0.235171
0.286054
0.281084
0.327219
0.305064
0.311526
0.342644
0.302363
0.313617
0.340257
0.345790
0.334699
0.332768
0.347248
0.356041
0.385499
0.371787
0.361788
0.406661
0.411263
0.418281
0.443295
0.430048
0.435192
0.418536
0.427207
0.410087
0.407509
0.408268
0.409686
0.374274
0.363909
0.405705
0.440089
0.341181
0.328158
0.401813
0.391127
0.405825
0.408826
0.419732
0.428298
0.438813
0.446223
0.452666
0.450398
0.446816
0.457954
0.452373
0.452984
0.457795
0.457355
0.444568
0.167953
0.164230
0.202654
0.167638
0.102744
0.179347
0.454973
0.440040
0.438277
0.432245
0.432434
0.408800
0.384649
0.367504
0.352832
0.383454
0.427080
0.415728
0.383410
0.381205
0.375596
0.331286
0.340713
0.321993
0.350348
0.324571
0.308816
0.282607
0.266610
0.241537
0.167811
0.321074
0.305549
0.315276
0.311850
0.267192
0.227213
0.234216
0.267208
0.320225
0.402928
0.431735
0.443950
0.437796
0.454414
0.444017
0.215220
0.218143
0.226546
0.247066
0.229418
0.231548
0.211111
0.232202
0.246128
0.260210
0.275238
0.261805
0.187165
0.228677
0.204396
0.244797
0.327183
0.356592
0.380760
0.399609
0.423103
0.405893
0.393501
0.387957
0.364365
0.331377
0.382264
0.352625
0.387566
0.402387
0.414828
0.415705
0.411422
0.411176
0.423490
0.411319
0.425347
0.404637
0.429038
0.373695
0.359520
0.334238
0.352924
0.389291
0.408136
0.163735
0.087383
0.125653
0.061246
0.100177
0.220706
0.248880
0.271390
0.290850
0.324403
0.344060
0.346206
0.328754
0.312386
0.294134
0.285747
0.334648
0.412485
0.221918
0.222474
0.238966
0.299186
0.295500
0.301037
0.278476
0.286655
0.306754
0.300250
0.319676
0.348837
0.361999
0.373325
0.389300
0.361300
0.366769
0.368778
0.366583
0.336249
0.321642
0.266890
0.231004
0.153804
0.200041
0.148724
0.187555
0.228990
0.264526
0.266963
0.281615
0.293161
0.314583
0.281543
0.277971
0.258872
0.284582
0.276615
0.297703
0.222767
0.243113
0.448187
0.443094
0.455369
0.470020
0.457054
0.451920
0.439462
0.418447
0.445097
0.432415
0.434505
0.442956
0.424317
0.422626
0.391930
0.362411
0.377054
0.336813
0.329908
0.324608
0.345473
0.336619
0.430223
0.427132
0.420099
0.415170
0.419359
0.410594
0.390234
0.356378
0.406283
0.424153
0.295485
0.384955
0.373624
0.418497
0.422861
0.418479
0.422785
0.428521
0.427456
0.438337
0.444226
0.452955
0.446229
0.430783
0.454587
0.452057
0.453418
0.462386
0.448538
0.447195
0.472276
0.441683
0.469365
0.460471
0.444214
0.437852
0.462386
0.425797
0.417353
0.417976
0.404061
0.395409
0.381341
0.386588
0.410814
0.413617
0.405178
0.402838
0.385663
0.348486
0.347706
0.349328
0.354393
0.392026
0.380066
0.361859
0.334875
0.293636
0.276365
0.285156
0.314782
0.223698
0.246346
0.233620
0.270934
0.278726
0.282440
0.255030
0.262113
0.278360
0.303631
0.311940
0.312863
0.315327
0.327618
0.334321
0.301361
0.347134
0.369993
0.357018
0.375513
0.360023
0.353006
0.314624
0.356609
0.314635
0.303597
0.315221
0.251205
0.238127
0.126876
0.210354
0.212946
0.196160
0.271207
0.265483
0.269268
0.292510
0.296061
0.271608
0.290761
0.308837
0.285777
0.310345
0.325239
0.337845
0.247494
0.302418
0.227914
0.324787
0.355053
0.330118
0.292354
0.282282
0.289797
0.271210
0.346688
0.407943
0.431536
0.428129
0.439365
0.431547
0.451794
0.448559
0.340003
0.367528
0.382753
0.407972
0.425249
0.418918
0.417535
0.399316
0.387341
0.390162
0.375491
0.359769
0.360361
0.391919
0.414804
0.400961
0.413920
0.423976
0.415857
0.435649
0.415343
0.439584
0.386108
0.436048
0.307125
0.302916
0.312669
0.358002
0.412727
0.399971
0.415302
0.403344
0.357822
0.272232
0.224041
0.159770
0.157274
0.090740
0.137738
0.151598
0.204301
0.253587
0.289937
0.322271
0.310064
0.331317
0.349137
0.345088
0.333611
0.320298
0.438072
0.444666
0.445362
0.450930
0.445414
0.447704
0.438379
0.457531
0.450884
0.447286
0.443361
0.460652
0.458463
0.471365
0.459372
0.459342
0.457968
0.268170
0.274843
0.332777
0.296432
0.323227
0.291993
0.309856
0.358501
0.355410
0.327856
0.349197
0.353778
0.345687
0.377985
0.383326
0.376206
0.413238
0.407203
0.430615
0.445719
0.438663
0.447812
0.456617
0.437129
0.434900
0.411384
0.398388
0.398084
0.396522
0.408281
0.414328
0.408416
0.410863
0.389543
0.373638
0.369485
0.357306
0.397670
0.349786
0.330434
0.323175
0.330067
0.303804
0.319113
0.383950
0.408985
0.442199
0.446285
0.456700
0.471886
0.437773
0.237398
0.260094
0.271971
0.287889
0.328982
0.335650
0.337628
0.364228
0.347092
0.446495
0.439642
0.439003
0.434536
0.435539
0.268252
0.207312
0.150004
0.170000
0.178714
0.216752
0.213839
0.242603
0.283155
0.327547
0.326343
0.330355
0.331023
0.344978
0.349106
0.349220
0.335932
0.283682
0.304799
0.326007
0.335102
0.323287
0.324081
0.319378
0.370071
0.346366
0.349154
0.355950
0.340276
0.363197
0.390111
0.397431
0.407760
0.411798
0.430718
0.436917
0.428009
0.428202
0.421863
0.422057
0.419951
0.411790
0.361580
0.371287
0.417548
0.330112
0.334367
0.381649
0.397499
0.457943
0.450573
0.449452
0.446437
0.426209
0.460136
0.442701
0.425806
0.439883
0.430946
0.424651
0.390481
0.365796
0.365922
0.345484
0.210028
0.240189
0.243617
0.235466
0.282186
0.284243
0.441531
0.446560
0.438355
0.441886
0.438382
0.444296
0.461013
0.455538
0.450307
0.451816
0.462083
0.453107
0.454797
0.463715
0.443680
0.460425
0.459294
0.448994
0.456839
0.447007
0.436711
0.445268
0.444011
0.444270
0.431641
0.433849
0.427115
0.407278
0.385335
0.351657
0.346641
0.439987
0.433645
0.426980
0.433993
0.430255
0.416292
0.414997
0.406513
0.419082
0.420445
0.310255
0.328690
0.291749
0.294703
0.339416
0.270381
0.301945
0.366588
0.277904
0.288624
0.256867
0.234093
0.358154
0.363597
0.374298
0.371433
0.367838
0.373237
0.350774
0.344448
0.320660
0.304789
0.264708
0.271054
0.242451
0.206837
0.364015
0.380304
0.420029
0.424926
0.425787
0.444499
0.438145
0.425459
0.416333
0.435759
0.412622
0.420686
0.390007
0.383032
0.372384
0.375549
0.411768
0.421368
0.422774
0.411505
0.392194
0.391035
0.386016
0.385476
0.323387
0.266085
0.336089
0.317094
0.327906
0.300256
0.358678
0.344737
0.342503
0.343747
0.359399
0.356826
0.389593
0.404708
0.397364
0.414539
0.429963
0.444277
0.435333
0.431227
0.428945
0.429738
0.421158
0.402104
0.366075
0.330556
0.342310
0.323818
0.345627
0.389411
0.391815
0.396194
0.406900
0.411456
0.433364
0.437856
0.438658
0.436807
0.434359
0.438071
0.431357
0.444070
0.470446
0.451957
0.461117
0.458303
0.339292
0.329344
0.378940
0.329704
0.246043
0.253235
0.239876
0.255185
0.248871
0.229170
0.277758
0.325739
0.336501
0.354377
0.349570
0.347109
0.351636
0.362806
0.363544
0.280850
0.403247
0.413780
0.423765
0.432332
0.439277
0.440533
0.438523
0.415509
0.410119
0.383276
0.416181
0.426170
0.375191
0.331293
0.320050
0.351808
0.427708
0.451895
0.447205
0.444523
0.452046
0.436696
0.439617
0.404006
0.411894
0.416580
0.419099
0.431295
0.432001
0.397197
0.389899
0.401026
0.396749
0.443929
0.426696
0.447992
0.427039
0.395550
0.400870
0.401097
0.249739
0.236754
0.294301
0.274649
0.292347
0.314739
0.324359
0.315629
0.291908
0.289691
0.302229
0.295804
0.286715
0.461491
0.451304
0.451687
0.452567
0.466437
0.456538
0.462225
0.458142
0.452969
0.444739
0.441806
0.431066
0.448442
0.448936
0.315891
0.343773
0.321770
0.342036
0.350001
0.349309
0.360514
0.379353
0.365586
0.377098
0.396762
0.402991
0.410154
0.434394
0.441992
0.438687
0.434328
0.437313
0.438982
0.430403
0.417781
0.396707
0.373783
0.358918
0.384015
0.361787
0.391970
0.429299
0.398582
0.404411
0.399578
0.414122
0.428459
0.437597
0.444435
0.440817
0.439891
0.438087
0.439674
0.435425
0.425027
0.473968
0.457256
0.448409
0.468415
0.380704
0.390351
0.413796
0.392170
0.393596
0.368794
0.374765
0.381560
0.328583
0.317850
0.315788
0.289182
0.247206
0.237746
0.356257
0.342496
0.426864
0.415348
0.441039
0.428137
0.443918
0.432620
0.433996
0.451365
0.381626
0.289566
0.333240
0.366601
0.378639
0.373892
0.363191
0.359101
0.359502
0.366399
0.334606
0.308722
0.335061
0.345340
0.364578
0.320285
0.332409
0.391633
0.362443
0.370162
0.400951
0.424804
0.411440
0.430641
0.439626
0.441801
0.438864
0.444018
0.443511
0.436753
0.428998
0.419148
0.396760
0.383025
0.350077
0.318108
0.305728
0.350864
0.366489
0.373011
0.358589
0.398961
0.450564
0.440057
0.449240
0.444837
0.441837
0.441507
0.439094
0.441884
0.439186
0.444215
0.455461
0.460934
0.422820
0.446217
0.445862
0.248900
0.261965
0.277889
0.303621
0.321467
0.302658
0.324473
0.311849
0.345785
0.393060
0.424831
0.328745
0.347397
0.430824
0.434496
0.434893
0.380443
0.358358
0.429637
0.452205
0.445559
0.447569
0.432369
0.445641
0.426268
0.434123
0.437323
0.441811
0.433934
0.442480
0.428784
0.434140
0.412633
0.421774
0.400882
0.429348
0.436282
0.463210
0.435206
0.411304
0.412154
0.411017
0.416385
0.358219
0.385946
0.395575
0.413578
0.378776
0.364513
0.401463
0.372828
0.302982
0.346283
0.341541
0.313842
0.268636
0.270619
0.441399
0.449109
0.445329
0.445512
0.458192
0.464335
0.436243
0.444009
0.448680
0.434504
0.445718
0.447288
0.441272
0.447087
0.451235
0.333932
0.281506
0.284092
0.275601
0.410083
0.420838
0.311654
0.343642
0.361915
0.411414
0.424814
0.421057
0.443319
0.438459
0.411311
0.375824
0.349598
0.319616
0.323088
0.341228
0.294395
0.329129
0.302333
0.307153
0.329031
0.335366
0.369815
0.366280
0.392630
0.381764
0.424540
0.421225
0.433001
0.438097
0.438298
0.441231
0.449141
0.449714
0.446079
0.436892
0.431521
0.392754
0.379294
0.321999
0.313077
0.245339
0.299283
0.438545
0.440372
0.440384
0.431679
0.430429
0.431151
0.443420
0.424263
0.450580
0.442842
0.442121
0.420091
0.415868
0.424310
0.429813
0.436368
0.441874
0.445234
0.446180
0.450999
0.434626
0.366505
0.433609
0.450954
0.438547
0.441739
0.458509
0.455468
0.446132
0.440848
0.458165
0.431310
0.441360
0.425142
0.433242
0.428577
0.429207
0.433904
0.435638
0.441122
0.453478
0.430361
0.458859
0.454205
0.442356
0.453978
0.440316
0.437085
0.428386
0.434775
0.426959
0.424441
0.372772
0.386658
0.411571
0.388828
0.377499
0.364453
0.382110
0.384563
0.373491
0.340487
0.338526
0.305863
0.293462
0.441153
0.444265
0.447711
0.428202
0.471021
0.447974
0.445202
0.437375
0.290519
0.299912
0.326344
0.334071
0.328151
0.440477
0.311386
0.307699
0.353591
0.365318
0.385539
0.373240
0.390816
0.385271
0.412344
0.414242
0.429636
0.434182
0.436160
0.440313
0.448789
0.451474
0.454808
0.443394
0.425363
0.399761
0.391538
0.347611
0.316464
0.301349
0.361875
0.380965
0.379950
0.386490
0.439951
0.392797
0.455698
0.446102
0.445057
0.440728
0.437065
0.438409
0.446479
0.439714
0.450653
0.452103
0.440405
0.432447
0.428312
0.427616
0.444845
0.449465
0.432573
0.401431
0.383351
0.385131
0.357457
0.320291
0.421416
0.438040
0.447322
0.442853
0.453137
0.440330
0.422316
0.409767
0.400239
0.385987
0.350368
0.402164
0.390829
0.430866
0.429948
0.427979
0.426865
0.437174
0.443653
0.446643
0.448430
0.454150
0.444405
0.436198
0.448025
0.382384
0.402027
0.365425
0.371207
0.365175
0.356040
0.357840
0.342268
0.334724
0.294180
0.283055
0.329115
0.298019
0.319676
0.290172
0.441969
0.443295
0.436960
0.432806
0.428473
0.431434
0.437049
0.440002
0.461944
0.437888
0.450386
0.445792
0.434562
0.423770
0.415249
0.412872
0.397304
0.382092
0.406615
0.400889
0.423198
0.402371
0.367876
0.381183
0.375992
0.398119
0.361429
0.371806
0.358326
0.345394
0.374480
0.374878
0.304612
0.317658
0.414046
0.415655
0.424286
0.429224
0.430843
0.441113
0.427888
0.423063
0.412530
0.420747
0.411084
0.432796
0.399990
0.410594
0.418304
0.385305
0.406389
0.124224
0.071971
0.050479
0.190534
0.073879
0.096598
0.221454
0.358521
-0.127835
-0.054426
0.047757
-0.090291
0.374968
0.386075
0.392404
-0.004018
-0.031704
-0.001550
-0.196196
-0.272306
0.030004
-0.079036
0.361961
0.388203
0.389572
0.336529
0.423760
0.414250
0.334608
0.358742
0.383245
0.440098
0.423850
0.386202
0.380217
0.373477
0.152701
0.181727
0.151212
0.142307
0.204733
0.199149
0.178207
0.212524
0.216279
0.181581
0.153324
0.071708
0.226741
0.283489
0.328296
0.320292
0.341955
0.297679
0.405931
0.432616
0.402378
0.416447
0.435123
0.440492
0.255032
0.297533
0.443157
0.443294
0.432145
0.443598
0.431425
0.444340
0.452023
0.441108
0.429520
0.425515
0.361406
0.372036
0.351283
0.443773
0.435652
0.440783
0.352516
0.372697
0.384920
0.324438
0.335322
0.351679
0.289559
0.313125
0.312397
-0.078099
0.249121
0.330374
-0.193254
-0.109544
-0.233700
0.014352
-0.155190
0.395321
0.358549
0.374001
0.359424
0.387381
0.356783
0.112496
-0.082033
-0.130258
-0.018503
0.219086
-0.182355
0.065773
0.132889
0.124333
0.126448
0.100293
0.177586
0.181810
0.031611
0.057516
0.106360
0.076370
0.080907
0.126417
0.173792
0.066209
0.152524
-0.065868
-0.018478
0.213904
-0.018996
-0.056931
-0.026416
0.052891
0.047146
0.146409
-0.043325
0.147580
0.035966
-0.147195
-0.225985
0.012659
-0.076916
-0.123143
-0.085895
-0.089318
-0.122855
-0.110755
-0.170128
-0.066944
0.019314
0.036748
0.011801
0.040168
-0.074599
-0.113811
-0.105226
-0.133720
-0.061025
0.059268
0.130385
0.125190
0.108310
0.123303
0.148704
0.216033
0.226881
0.258641
0.282080
0.296456
0.307663
0.313962
0.316832
0.319358
0.317858
0.306652
0.299449
0.302098
0.295905
0.271427
0.260603
0.225048
0.144253
0.038105
0.177681
0.119298
0.064251
-0.116181
0.012170
0.199990
0.274685
0.306498
0.324165
0.327269
0.324883
0.320536
0.314590
0.313147
0.312761
0.313524
0.313530
0.320017
0.325846
0.323595
0.315170
0.315483
0.317242
0.317510
0.271918
0.280831
0.267509
0.256480
0.214833
0.156877
0.192087
0.254112
0.146150
0.101367
0.208314
0.255233
0.277603
0.252857
0.232215
0.238643
0.207706
0.215114
0.242631
0.251030
0.248968
0.277873
0.244740
0.303795
0.300512
0.305415
0.301058
0.317559
0.301281
0.302753
0.280240
0.292858
0.261847
0.253826
0.270224
0.231913
0.257038
0.218464
0.247824
0.193697
0.220212
0.176699
0.153621
0.170298
0.159884
0.217982
0.215459
0.149049
0.174150
0.093265
0.077181
0.159976
0.172046
0.128762
0.156818
0.205727
0.165893
0.247504
0.202168
0.233127
0.223486
0.255627
0.267590
0.222457
0.251950
0.050080
0.075215
0.039030
0.001170
-0.234614
0.091709
0.021306
0.048261
0.147192
0.040323
0.227830
-0.006033
-0.011152
0.143124
0.140971
0.195865
0.141938
0.240221
0.054746
0.113200
-0.046088
-0.184331
0.192824
0.254279
0.165672
0.200569
0.248164
0.224073
0.241942
0.195368
0.036250
-0.029621
-0.168471
0.132012
0.001732
0.119210
-0.029079
-0.188966
0.072908
0.077774
0.037905
0.104823
0.231878
0.082660
-0.033926
-0.027744
0.122654
0.183674
0.116433
0.156067
0.201128
0.191895
0.204618
0.175167
0.131057
-0.039698
0.101151
-0.010335
0.012358
0.150580
-0.056979
-0.075847
-0.011793
-0.129551
-0.233312
-0.251548
-0.274614
-0.237371
-0.090700
-0.194445
-0.123879
0.008379
0.028962
0.017773
-0.170088
-0.150865
-0.083240
-0.132119
-0.110216
-0.131245
-0.081722
-0.140985
-0.149392
-0.193692
-0.189600
-0.071140
0.072046
0.078668
0.090412
0.109791
0.195663
0.197579
0.212110
0.194564
0.220515
0.161502
0.126313
0.019813
0.201208
0.323914
0.312319
0.273425
0.250894
0.205479
0.134614
-0.039712
-0.165754
0.067948
0.103914
-0.009438
0.046436
0.149697
0.211769
0.219421
0.221524
0.227948
0.237617
0.231288
0.221932
0.228531
0.245316
0.280149
0.276718
0.294014
0.300196
0.331338
0.319639
0.321073
0.325034
0.314717
0.299312
0.268704
0.251350
0.274673
0.253159
0.249447
0.228472
0.235702
0.201589
0.198772
0.183547
0.156919
0.186245
0.181981
0.181696
0.201211
0.146142
0.166665
0.094577
0.118843
0.169093
0.142396
0.174898
0.168134
0.195022
0.222326
0.238633
0.235744
0.244385
0.248959
0.269284
0.320959
0.330811
0.000957
0.088668
0.037121
0.011814
-0.015792
0.046399
-0.000226
-0.191207
-0.082427
-0.037919
0.279718
0.209760
0.114786
0.029582
0.105677
-0.219057
-0.155201
-0.094218
0.193914
0.221452
0.131635
0.248819
0.324463
0.257419
0.261726
0.241765
0.235779
0.151700
0.220543
-0.189652
0.115982
0.176723
0.135699
0.159898
0.067178
0.034715
-0.046457
-0.070700
-0.154892
-0.053926
0.231081
0.203788
0.087566
0.001589
0.065266
-0.134229
-0.115134
-0.041666
0.068422
0.274638
0.287322
0.327521
0.305804
0.307040
0.278632
0.230150
0.268774
0.324601
0.281565
0.216305
0.212441
0.255985
0.278868
0.298632
0.282419
0.250336
0.234124
0.236555
0.251345
0.253859
0.264438
0.263348
0.274406
0.286108
0.279946
0.286078
0.296270
0.311122
0.299449
0.314417
0.280813
0.279615
0.295709
0.286739
0.265096
0.238018
0.221645
0.213110
0.205810
0.145961
0.062249
0.207725
0.151795
0.124359
0.146940
0.155330
0.194556
0.208172
0.258646
0.260723
0.289255
0.142206
0.090305
0.011504
-0.040558
-0.103447
-0.106122
0.041186
0.050893
-0.158570
-0.221974
-0.176345
-0.255554
-0.184101
-0.148619
-0.188375
-0.132673
-0.055512
0.015119
0.045408
-0.107327
-0.026670
0.079039
-0.062636
-0.123786
-0.165682
-0.204628
-0.234840
-0.176032
0.027428
0.024405
0.108435
0.126103
0.216414
0.223032
0.218473
0.206163
0.177345
0.145566
0.214068
0.150075
0.000155
0.037494
0.270199
0.269248
0.273820
0.282626
0.278579
0.265389
0.264798
0.240751
0.249121
0.244027
0.239415
0.242730
0.210192
0.184082
0.147555
0.172694
-0.062527
0.032251
-0.100774
-0.051106
0.025493
0.078972
-0.073267
0.110407
0.058386
0.051501
0.061872
0.124503
0.250462
0.194362
0.131692
0.041763
0.020541
0.006338
0.255155
0.008489
0.079035
0.134653
0.159950
0.162200
0.214503
0.210019
0.234056
0.198225
0.198755
0.209330
0.240425
0.270708
0.281485
0.290069
0.297228
0.316989
0.320531
0.324241
0.327071
0.339139
0.334584
0.327377
0.313174
0.311560
0.303233
0.286710
0.272317
0.272491
0.254171
0.242719
0.233372
0.225904
0.215588
0.204319
0.209038
0.173933
0.158928
0.162650
0.163628
0.186304
0.146956
0.114408
0.080483
0.082064
0.117066
0.135924
0.154408
0.160531
0.197408
0.229738
0.244391
0.240933
0.260631
0.174682
0.163348
0.123840
0.030451
-0.018668
-0.091154
-0.090609
-0.001216
0.181206
0.180765
0.122550
-0.025303
-0.076960
-0.146617
-0.139876
-0.050806
0.229587
0.280686
0.319787
0.311224
0.299757
0.305482
0.296196
0.311876
0.251173
0.252037
0.289191
0.102848
0.268787
0.230749
0.266583
0.284830
0.223356
0.195225
0.224601
0.234199
0.221096
0.223967
0.256002
0.242888
0.069371
0.021564
0.247237
0.249903
0.188548
0.194666
0.101318
0.040133
0.117712
0.144582
0.107743
0.114984
0.008502
-0.027789
-0.049012
0.085488
0.019600
-0.136385
-0.158249
-0.095000
0.181984
0.158429
-0.057051
-0.036347
0.025606
0.099079
0.136281
0.142461
0.087757
0.036808
0.003847
-0.012878
0.032441
0.067996
0.105295
-0.108458
-0.119937
-0.141626
-0.079151
-0.120586
-0.058982
-0.008191
0.075247
0.097755
0.090322
0.053239
-0.018523
-0.057742
-0.085756
-0.126711
-0.192071
-0.198549
-0.082985
0.019975
0.096287
0.058660
0.184555
0.191551
0.204911
0.215191
0.210966
0.206648
0.165198
0.162290
0.220455
0.249849
0.221357
0.136704
0.096777
0.053406
-0.146839
0.147050
0.144610
0.055322
0.180261
0.203684
0.182060
0.213266
0.217323
0.178526
0.163294
0.200998
0.223596
0.259088
0.268813
0.277639
0.290026
0.309222
0.322322
0.316631
0.332685
0.335558
0.332586
0.328177
0.324252
0.314793
0.328564
0.314352
0.307803
0.294706
0.280516
0.276552
0.257398
0.247852
0.238035
0.222310
0.198746
0.194516
0.191843
0.180231
0.195083
0.158334
0.125986
0.146188
0.069090
0.131575
0.090170
0.006727
0.040588
0.114010
0.119101
0.148434
0.199135
0.237895
0.243740
0.252270
0.143655
0.065708
0.139461
0.147300
0.117168
0.169228
0.261171
0.248093
0.236640
0.229970
0.189874
0.211368
0.205359
0.178864
0.185887
0.190875
0.155849
0.128865
0.112274
-0.055932
-0.000228
0.035391
-0.131120
-0.051451
-0.046050
0.047706
0.084766
0.009935
-0.026881
0.070879
0.171939
0.121317
0.069781
-0.066206
-0.103685
-0.028587
0.058548
0.183863
0.206774
0.095388
-0.073500
-0.122311
-0.098302
-0.018782
0.030201
0.007530
0.074180
0.108375
0.245160
0.273173
0.283661
0.305459
0.307367
0.303875
0.307919
0.289442
0.293123
0.234006
0.215437
0.217079
0.269061
0.247180
0.115965
0.292047
0.303332
0.244351
0.237211
0.189404
0.145932
0.180671
0.221904
0.210729
0.214320
0.096909
0.063277
0.020444
0.198974
0.222278
0.142223
0.152933
0.172290
0.210573
0.225878
0.259817
0.239964
0.226402
0.202237
0.143119
0.134513
0.169012
0.214639
0.236515
0.231140
0.272661
0.274962
0.293420
0.327280
0.327392
0.326023
0.333104
0.327092
0.326759
0.324127
0.313105
0.321754
0.254193
0.236536
0.192513
0.058141
0.209376
0.246055
0.253419
0.225339
0.262956
0.311294
0.283640
0.250410
0.237782
0.218948
0.223679
0.219337
0.203530
0.189531
0.192852
0.237006
0.208239
0.227034
0.205558
0.232127
0.227738
0.224694
0.251830
0.291333
0.234427
0.144385
0.122075
0.051486
0.012886
0.028312
0.016968
-0.011657
-0.007636
-0.093692
0.027797
0.101517
0.103849
0.075320
0.089739
0.104305
0.202687
0.244976
0.243618
0.241911
0.216018
0.127759
-0.003292
-0.063559
-0.009260
0.054912
0.086260
0.123552
0.112853
0.105224
0.074184
0.029314
0.034966
0.075474
0.001571
-0.089104
-0.130904
-0.114110
-0.069711
-0.087747
-0.036678
0.000081
0.043086
0.079140
0.084276
0.316341
0.296470
0.280176
0.281414
0.279691
0.247880
0.253898
0.234865
0.210664
0.204848
0.187214
0.177059
0.181070
0.131949
0.107629
0.080642
0.088600
0.111430
0.061626
-0.001615
0.018856
0.085055
0.118603
0.136247
0.169211
0.240931
-0.015046
-0.067497
-0.096417
-0.141555
-0.189848
-0.200841
-0.029810
-0.029340
0.229654
0.247775
0.252420
0.242729
0.239352
0.226812
0.208549
0.211733
0.232033
0.188970
0.181276
0.141724
0.197947
0.184348
0.212445
0.211810
0.227921
0.219301
0.287230
0.252264
0.153232
0.152800
0.108295
0.070346
0.018001
0.037357
-0.023374
-0.040688
-0.052635
-0.033192
0.030162
0.103895
0.143843
0.136957
0.097006
-0.003903
0.001237
0.084023
0.144030
0.190617
0.131857
-0.010304
-0.082204
-0.076283
-0.112423
-0.051628
-0.010510
0.077354
0.041556
0.123971
0.189955
0.103891
0.271346
0.221341
0.227304
0.146734
0.194216
0.224574
0.278117
0.206747
0.180911
0.258623
0.280598
0.245115
0.266880
0.280419
0.264503
0.244489
0.219332
0.196280
0.168547
0.127626
0.166190
0.205728
0.185064
0.207416
0.226413
0.268597
0.278487
0.317643
0.328638
0.335521
0.330150
0.330637
0.323709
0.325785
0.322637
0.320918
-0.008412
-0.037955
0.048572
0.095063
0.120048
0.100510
0.164386
0.228463
0.177720
0.187429
0.247958
0.288636
0.305879
0.309181
0.312086
0.282357
0.261341
0.284756
0.239776
0.317442
0.291801
0.274180
0.276932
0.247598
0.241638
0.237893
0.209754
0.203013
0.213564
0.175435
0.195470
0.182447
0.184265
0.140491
0.131291
0.111477
0.108212
0.068595
0.053045
0.085726
0.046562
0.025272
0.069109
0.083752
0.096961
0.122047
0.001983
-0.053913
-0.098531
-0.117788
-0.146866
-0.134767
0.167362
0.211025
0.344318
0.333928
0.311091
0.280436
0.264059
0.249508
0.238983
0.206107
0.219113
0.222260
0.208594
0.187794
0.139817
-0.008614
0.001557
0.023794
0.041279
0.144114
0.126231
0.167719
0.150499
0.223355
0.239849
0.248996
0.268888
0.274618
0.297885
0.260006
0.275455
0.285954
0.275355
0.251201
0.237670
0.200571
0.125806
0.171583
-0.022173
0.007699
0.024659
0.064291
0.062179
0.084938
0.109517
0.099259
0.068355
0.041338
-0.005372
0.023221
0.006577
-0.070649
-0.075251
-0.084816
-0.096023
-0.049501
-0.081300
-0.054434
-0.021439
-0.003462
0.058733
0.148516
0.151034
0.206680
0.260408
0.250785
0.191327
0.154815
0.066115
0.055954
0.034443
-0.006533
-0.027682
0.188983
0.221864
0.240764
0.232991
0.223083
0.206478
0.170560
0.156612
0.180390
0.168711
0.177286
0.188432
0.217383
0.241485
0.262862
0.289092
0.321042
0.318779
0.336091
0.336284
0.327625
0.320200
0.325122
0.323769
0.324269
0.304346
0.289733
0.264369
0.256978
0.236397
0.228426
0.220127
0.222487
0.223131
0.195568
0.195437
0.169251
0.180220
0.167807
0.207398
0.208002
0.268085
0.162105
0.155317
0.245792
0.232607
0.217201
0.179056
0.184808
0.149152
0.269187
0.261802
0.214850
0.177967
0.181357
0.148604
0.146022
0.119595
0.108502
0.082361
0.043601
0.024698
0.040196
0.073136
0.079189
0.167731
0.138010
0.112424
0.000464
-0.097392
-0.007688
0.084617
0.133299
0.167114
0.183411
0.078308
0.058668
0.087198
0.140089
0.170251
0.151900
0.075425
-0.056378
0.283027
0.248146
0.275798
0.246630
0.290133
0.247198
0.187762
-0.082504
-0.068523
-0.087816
-0.085867
-0.059242
-0.061599
0.311862
0.260540
0.261627
0.263871
-0.101065
-0.116611
-0.155271
-0.122674
0.093573
0.191973
0.232656
0.333567
0.340468
0.322395
0.306306
0.280580
0.272728
0.270024
0.233305
0.208404
0.193709
0.200090
0.204178
0.153168
0.211822
0.231368
0.220904
0.220889
0.204587
0.181950
0.171814
0.208564
0.177684
0.138984
0.038328
0.016955
0.059535
0.069672
0.161104
0.142343
0.122056
0.102902
0.073908
0.052952
0.161344
0.181927
0.292174
0.315939
0.323355
0.331038
0.331208
0.326608
0.323047
0.320389
0.303080
0.294576
0.280413
0.278740
0.265317
0.266685
0.224518
0.221564
0.222612
0.224112
0.210651
0.219715
0.298483
0.298220
0.316871
0.313333
0.318552
0.318473
0.325226
0.327626
0.320200
0.328090
0.310373
0.291359
0.304611
0.268022
0.263318
0.273553
0.254943
0.217353
0.238268
0.223232
0.210478
0.206093
0.200506
0.181335
0.186059
0.189152
0.164997
0.111603
0.112192
0.084721
0.043497
0.019461
0.016997
0.013579
0.028329
0.049008
0.207001
0.073644
0.072362
0.103457
0.108124
0.152779
0.170782
0.153607
0.140277
0.126837
0.087518
0.029162
0.007360
0.010244
-0.010986
0.157663
0.143096
0.137339
0.118504
0.149304
0.162364
0.208233
0.184794
0.166364
0.167163
0.120122
0.075218
0.042324
0.020147
0.018945
0.009207
-0.069232
-0.097928
-0.054020
-0.013884
0.029125
0.084847
0.128791
0.164748
0.189241
0.206206
-0.098950
-0.135475
-0.151293
-0.102457
0.053760
0.185615
0.222169
0.310650
0.336923
0.331126
0.320704
0.313011
0.298556
0.287496
0.282082
0.268035
0.247083
0.206719
0.198331
0.173097
0.139532
0.099549
0.275605
0.095442
0.141537
0.170763
0.159385
0.142500
0.063082
0.053964
0.071827
0.110408
-0.093763
-0.107487
-0.108206
0.174362
0.140971
0.124626
0.039832
0.253638
0.277065
0.242773
0.250748
0.219356
0.241989
0.207277
0.217875
0.212745
0.197599
0.208976
0.189165
0.208983
0.180048
0.086242
0.165360
0.103349
0.065077
0.069083
-0.037441
0.024844
-0.032390
-0.031634
0.016740
0.071744
0.113742
0.145957
0.179265
0.206830
0.216338
0.218592
0.214483
0.217386
0.202238
0.195636
0.181340
-0.118553
-0.117622
-0.048843
0.042965
0.157346
0.220696
0.303499
0.321891
0.334337
0.334040
0.323494
0.309875
0.300087
0.300551
0.307382
0.285905
0.284930
0.254498
0.239974
0.204887
0.173406
0.129857
0.156132
0.174792
0.205303
0.241522
0.276631
0.137178
0.085732
0.066510
0.025401
0.026918
-0.020691
-0.001860
0.138844
-0.013929
-0.123485
0.156065
0.169506
0.164023
0.159295
0.110152
0.071868
0.112632
0.128003
0.139556
0.120705
-0.111042
0.124191
0.129783
0.062636
-0.002177
-0.003688
0.032524
0.054771
-0.041044
0.033708
-0.039886
0.045783
0.077962
0.114736
0.154857
0.190346
0.218695
0.200855
0.203448
0.228823
0.114815
0.167430
0.166502
0.249640
0.265509
0.293778
0.297355
0.293758
0.305853
0.308804
0.313033
0.318112
0.308738
0.323334
0.314798
0.295729
0.290015
0.197305
0.220695
0.192821
0.204482
0.189936
0.159180
0.091237
0.077902
0.068857
-0.008930
-0.060695
-0.009599
0.066969
0.167511
0.247962
0.289495
0.304281
0.311011
0.316980
0.314905
0.299700
0.305688
0.302721
0.304045
0.292513
0.300395
0.302067
0.225277
0.200147
0.209160
0.205738
0.200560
0.198282
0.178798
0.154852
0.181368
0.182220
0.203044
0.190522
0.157863
0.137507
0.186910
-0.016377
-0.017330
-0.016970
-0.013717
-0.071066
-0.039479
-0.026888
0.147373
0.187805
0.217648
0.183390
0.204122
0.211456
0.251672
0.270766
0.257802
0.294322
0.288733
0.276796
0.299980
0.286398
0.315276
0.315611
0.319307
0.317318
0.298885
0.295576
0.285860
0.268606
0.238983
0.231483
0.215716
0.230125
0.217602
0.199095
0.211334
0.261631
0.278868
0.199888
0.205628
0.204670
0.200591
0.130786
0.090578
0.023693
-0.056011
0.161290
0.155055
0.176177
0.202534
0.229712
0.241426
0.220017
0.203326
0.173743
0.143841
0.091094
0.041185
0.108840
0.174210
0.308004
0.311076
0.307277
0.302839
0.297314
0.219829
0.242732
0.200867
0.220811
0.195132
0.220953
0.195733
0.188006
0.172897
0.167634
0.171437
0.227028
0.251121
0.270106
0.256451
0.241172
0.226509
0.216372
0.190487
0.149381
0.103395
0.070146
0.205689
0.192163
0.200065
0.185913
0.180989
0.188009
0.202800
0.211288
0.246761
0.271816
0.265207
0.276224
0.272410
0.272435
0.260671
0.243669
0.216396
0.172050
0.275391
0.294511
0.301361
0.128098
0.298882
0.301953
0.300165
0.286271
0.296745
0.320853
0.285514
0.309685
0.239859
0.251575
0.274789
0.311356
0.263876
0.276557
0.209622
0.265245
0.317377
0.293383
0.309554
0.303928
0.299089
0.280302
0.286253
0.254117
0.245341
0.221510
0.222183
0.190778
0.213270
0.194230
0.200889
0.190301
0.179103
0.182472
0.222320
0.216465
0.240309
0.255299
0.250925
0.303475
0.294414
0.292053
0.302146
0.300303
0.276904
0.241568
0.241414
0.206811
0.133056
0.126087
0.236261
0.182750
-0.028094
-0.061964
0.005537
0.002535
0.022104
-0.015841
0.062124
0.079450
-0.019463
0.073392
0.129168
0.186522
0.124797
0.260680
0.272540
0.188895
0.249479
0.114294
0.106464
0.054661
0.305062
0.296229
0.287805
0.234833
0.254292
0.241276
0.033294
0.048745
0.054964
0.043958
0.204162
0.232663
0.191755
0.192882
0.198407
0.182468
0.175948
0.170559
0.106739
0.197032
0.207968
0.210661
0.060609
0.045799
-0.000894
0.064090
0.044574
0.004029
0.244577
0.207545
0.205366
0.244303
0.147435
0.165937
0.154324
0.086557
0.157469
0.172884
0.206015
0.107148
0.234176
0.248940
0.251718
0.281621
0.257265
0.256679
0.274314
0.073304
0.049417
0.063809
-0.093918
-0.000173
0.149189
-0.168262
0.183612
0.238860
0.123542
0.272716
0.127402
0.199593
0.240187
0.193646
0.261394
0.264258
0.116295
0.093594
0.090796
-0.186122
0.119543
0.226080
0.180349
0.034694
0.281459
0.285515
0.303955
0.306092
0.316034
0.328907
0.332933
0.328477
0.336201
0.316258
0.309451
0.307411
0.306806
0.296470
0.273843
0.264296
0.126518
0.075053
0.170585
0.252162
-0.222164
-0.247900
-0.180338
0.145459
0.234307
0.225550
0.288284
0.231398
0.143468
0.162282
0.099443
0.105887
0.220990
0.166817
0.083135
0.059711
0.141411
0.130902
-0.020452
-0.112296
0.011534
-0.169471
-0.072684
-0.104327
-0.063241
-0.169988
-0.027287
-0.054865
0.138065
0.073544
0.109241
0.254383
0.137637
0.244292
0.207909
0.221511
0.176173
0.164197
0.133935
0.149531
0.174055
0.239391
0.188016
0.150607
0.215180
0.155491
0.123027
0.033896
-0.049454
-0.177183
-0.160989
0.260107
0.263216
0.250690
0.268578
0.243329
0.264840
0.276554
0.282512
0.270068
0.263448
0.313081
0.253646
0.316105
0.300748
0.273817
0.300198
0.305050
0.257596
0.294704
0.272987
0.278051
0.246374
0.247024
0.250069
0.252260
0.257606
0.261345
0.265923
0.264830
0.288150
0.259208
0.322568
0.305159
0.268469
0.290025
0.311630
0.258034
0.348924
0.275029
0.259583
0.289497
0.270875
0.274361
0.266403
0.278428
0.239621
0.262566
-0.150711
-0.183490
0.083544
0.130373
0.168744
0.031697
0.068838
0.130555
0.084596
0.156808
0.265486
0.274413
0.296556
0.315341
-0.153112
0.151658
0.140444
0.209333
0.232296
0.255038
0.241096
0.212190
0.052961
0.094381
0.072800
0.060541
0.057113
0.213751
0.296100
0.217159
0.072559
0.247574
0.200849
0.094039
0.110345
0.251607
0.145908
0.176406
0.162073
0.050185
0.267170
0.238374
0.191474
0.298268
-0.070809
-0.286827
0.106043
0.192361
0.264102
0.283438
0.007210
0.030723
-0.001381
0.079497
0.189838
0.146240
0.177502
0.185429
0.163406
0.185555
0.169510
-0.128190
-0.086993
-0.106628
-0.191107
-0.248009
-0.273778
-0.206714
-0.092565
0.088492
0.217714
0.209162
0.195065
0.172932
0.275091
0.257743
0.227373
0.202622
0.123341
0.126411
0.175507
0.161130
0.201974
0.266818
0.244684
0.224330
0.162429
0.074854
-0.145544
-0.232586
0.273772
0.214683
-0.010217
0.036800
-0.292588
-0.241892
0.314965
0.305023
0.292626
0.284550
0.294114
0.291187
0.304085
0.292486
0.315263
0.311575
0.304930
0.328731
0.302844
0.315989
0.326211
0.320056
0.306375
0.288977
0.302317
0.294234
0.280323
0.275099
0.277922
0.282090
0.282465
0.290587
0.292554
0.285481
0.298066
0.288559
0.307890
0.344571
0.290317
0.318493
0.322752
0.288047
0.335014
0.285059
0.296534
0.312602
0.313989
0.326419
0.357902
0.307700
0.314597
0.306296
0.296789
0.326655
0.332175
0.335373
0.344133
0.342312
0.336200
0.339164
0.312706
0.309157
0.306807
0.289401
0.274962
0.199446
0.183109
0.228363
0.320946
0.317858
-0.278149
0.060934
0.056526
0.116242
0.131415
0.042040
0.135511
0.123235
0.201208
0.275913
0.299491
0.323016
0.263598
0.156196
0.080861
-0.051664
0.124830
0.218607
0.200330
0.222937
0.141786
0.034224
0.105044
0.088107
0.125851
0.205912
0.337848
0.338138
0.237126
0.132573
0.074364
0.164167
-0.174495
-0.190224
-0.155656
0.131715
0.248764
0.309273
0.323773
0.188685
0.253622
0.217833
0.165804
0.080139
0.089049
0.103514
0.067337
0.125658
0.173306
0.227599
0.180400
-0.217169
-0.143455
-0.245264
-0.227461
-0.158868
0.025539
0.190917
0.192771
0.204001
0.261948
0.232412
0.202628
0.173368
0.107185
0.096629
0.130971
0.153619
0.149619
0.303917
0.300876
0.334885
0.284261
0.245885
0.131266
-0.085508
0.104579
0.078792
0.113787
0.153890
0.131524
0.148334
0.194962
0.224137
0.269181
0.292785
0.322532
0.148781
0.214931
0.151421
0.266138
0.217240
0.212863
0.226555
0.257688
0.072175
0.089806
0.183147
0.168628
0.100560
0.323673
0.325296
0.338646
0.348434
0.342250
0.348537
0.336208
0.336724
0.299707
0.290242
0.293107
0.270281
0.216999
0.290167
0.240973
0.309705
0.283560
0.166309
0.293507
0.296622
0.301022
0.309790
0.316888
0.324216
0.340097
0.346146
0.343828
0.327139
0.331022
0.309762
0.333226
0.314665
0.301501
0.287636
0.303944
0.281688
0.292357
0.288020
0.293097
0.294873
0.295804
0.304807
0.307976
0.301486
0.304770
0.295388
0.318629
0.314239
0.316008
0.330378
0.339360
0.329196
0.334688
0.313807
0.312308
0.343356
0.317228
0.314786
0.336607
0.318318
-0.020453
-0.005323
0.247521
0.303650
0.311217
0.211076
0.143767
0.175813
0.183285
0.105562
0.112421
0.127164
0.225303
0.315701
0.316873
0.232656
0.294922
0.217132
0.177627
0.313428
0.182274
-0.078113
-0.072524
-0.062977
0.130190
0.247762
0.311262
0.283571
0.240564
0.174222
0.152398
0.092477
-0.004102
0.047486
0.136961
0.167128
0.151894
0.105945
0.109545
0.179348
0.153207
0.102334
-0.063990
-0.121139
-0.150693
-0.119851
-0.026284
0.012531
0.182285
0.177919
0.208824
0.187968
0.216836
0.188012
0.154456
0.130088
0.101641
0.138832
0.222872
0.303364
0.316764
0.322323
0.269023
0.180880
0.056778
0.135413
0.142585
0.153674
0.173682
0.211865
0.187785
0.221618
0.241557
0.258792
0.265506
0.339010
0.331193
0.337098
0.335131
0.339794
0.339634
0.337127
0.322762
0.281964
0.310814
0.261164
0.287523
0.254988
0.205066
0.286761
0.306818
0.272529
0.260359
0.141483
0.221673
0.222380
0.288374
0.290225
0.244438
0.027863
0.136594
0.105161
0.073556
0.260967
0.250443
0.281245
0.291966
0.315991
0.313575
0.325651
0.339576
0.355670
0.334310
0.321450
0.320830
0.333884
0.318038
0.321239
0.296942
0.288924
0.289544
0.283967
0.289477
0.294148
0.303024
0.303396
0.306506
0.317966
0.323745
0.311577
0.292329
0.303789
0.315034
0.325108
0.334246
0.303858
0.348910
0.336289
0.337644
0.303305
0.325234
0.330171
0.323348
0.318727
0.328670
0.037141
0.155454
0.296767
0.252932
0.261875
0.212019
0.232233
0.189302
0.116490
0.144977
0.182490
0.234839
0.286133
0.301537
0.240916
0.264744
0.329647
0.276188
0.288882
0.263582
0.181243
0.220065
-0.006988
0.091090
0.053535
0.212611
0.280384
0.228551
0.255259
0.234546
0.306219
0.290127
0.250017
0.249657
0.160206
0.194537
0.079749
0.105998
0.242836
0.158861
0.175748
0.242509
0.274861
0.277645
0.248275
0.219461
0.130298
0.083821
-0.003452
-0.069886
-0.129636
-0.158216
0.102032
0.075729
0.057550
0.060787
0.114868
0.061510
0.044008
-0.022582
-0.101512
-0.064219
0.029059
0.052929
0.137658
0.176395
0.210042
0.183279
0.236201
0.255305
0.215602
0.187412
0.146453
0.128921
0.188541
0.202689
0.261371
0.290544
0.331374
0.332940
0.329293
0.314940
0.288097
0.249227
0.196319
0.200420
0.215614
0.222789
0.219003
0.225675
0.229841
0.236507
0.247056
0.262542
0.340836
0.325455
0.316650
0.308664
0.300119
0.280233
0.269806
0.280507
0.253872
0.245060
0.257371
0.290991
0.297423
0.284769
0.241937
0.228751
0.241539
0.230316
0.258200
0.253988
0.254674
0.253036
0.253947
0.239509
0.225060
0.176086
0.146530
0.260556
0.293885
0.314770
0.327467
0.339765
0.337680
0.355351
0.340061
0.309320
0.327015
0.318943
0.331836
0.295955
0.296170
0.288763
0.277030
0.271193
0.283781
0.299112
0.294517
0.305602
0.309896
0.323380
0.331000
0.317964
0.301186
0.294023
0.300182
0.321496
0.322086
0.343530
0.342655
0.341746
0.327324
0.324267
0.344024
0.329501
0.335791
0.318509
0.218952
0.233110
0.238898
0.261061
-0.047720
-0.080910
-0.088786
0.040202
0.093550
0.151963
0.190539
0.199154
0.217232
0.241621
0.244460
0.225037
0.217173
0.199365
0.178221
0.202419
0.200078
0.234654
0.269406
0.300206
0.315007
0.331282
0.337402
0.335248
0.313810
0.297281
0.260216
0.220812
0.255682
0.260997
0.259761
0.244116
0.179096
0.153516
0.178201
0.188880
0.187848
0.074390
0.110235
0.114508
0.130866
0.165713
0.265085
0.297081
0.262511
0.263720
0.210462
0.166453
0.089260
0.044741
-0.025519
-0.140454
-0.191713
0.246717
0.309947
0.278027
0.256732
0.262374
0.272105
0.268259
0.279509
0.282640
0.296477
0.321457
0.317757
0.309707
0.310674
0.297862
0.277825
0.279909
0.276844
0.286342
0.290868
0.311821
0.295395
0.289808
0.278683
0.274333
0.248006
0.234835
0.258311
0.262057
0.235994
0.044044
-0.015654
0.001695
0.017006
0.036817
0.312171
0.324819
0.337130
0.340120
0.333875
0.346765
0.319593
0.327725
0.330458
0.319720
0.299591
0.293014
0.265496
0.271235
0.268093
0.259752
0.276736
0.303587
0.289460
0.286878
0.320394
0.326758
0.294652
0.292632
0.297063
0.288561
0.320922
0.321651
0.326698
0.350513
0.353032
0.311052
0.322451
0.347986
0.330266
0.317171
0.246782
0.203574
0.180593
0.233781
0.327425
0.324371
0.296844
0.296033
0.284853
0.292657
0.281535
0.284012
0.289734
0.292584
0.293797
0.283552
0.274477
0.256160
0.248992
0.225834
0.247632
-0.043032
0.001043
0.116446
0.252640
0.262401
0.258089
0.236500
0.179602
0.176554
0.185419
0.202188
0.239905
0.263139
0.283453
0.298142
0.307690
0.327067
0.336117
0.333835
0.327006
0.314315
0.313164
0.230221
0.248816
0.253026
0.241382
0.237216
0.055748
-0.002955
0.007158
0.296920
0.324226
0.302028
0.302821
0.293543
0.239864
0.278443
0.263289
0.157048
0.097958
0.084372
0.076685
0.161439
0.244618
0.176684
0.126039
0.149883
0.198026
0.254266
0.276215
0.300036
0.261146
0.244653
0.204463
0.143997
0.165299
0.137109
0.139203
0.115585
0.119272
0.183733
0.306337
0.335875
0.333776
0.335420
0.339170
0.340264
0.321194
0.322707
0.309448
0.324657
0.292142
0.282260
0.249547
0.268614
0.255139
0.279202
0.244018
0.278768
0.290278
0.296750
0.282466
0.275416
0.278963
0.301199
0.300797
0.288924
0.306495
0.328882
0.323096
0.348190
0.352007
0.320216
0.325963
0.340824
0.330796
0.297845
0.286546
0.290845
0.286428
0.312276
0.237398
0.229797
0.230922
0.246049
0.236486
0.220859
0.176869
0.167120
0.197501
0.213417
0.237852
0.252160
0.271275
0.281940
0.295870
0.306203
0.314869
0.325131
0.328642
0.336309
0.333700
0.321402
0.311683
0.312881
0.311064
0.312938
0.314316
0.246888
0.253939
0.325510
0.326527
0.306773
0.307944
0.277042
0.236765
0.233654
0.147616
0.143093
0.250008
0.304589
0.276637
0.280595
0.293632
-0.047418
0.169926
0.297846
0.297545
0.235956
0.177466
0.285712
0.226196
0.193244
0.249559
0.275003
0.282639
0.234803
0.212796
0.208968
0.201041
0.323850
0.332232
0.347720
0.348052
0.323922
0.320111
0.323597
0.336535
0.281167
0.273391
0.239347
0.264973
0.251738
0.265651
0.221967
0.284559
0.288553
0.287330
0.272873
0.263709
0.265098
0.326963
0.282322
0.284807
0.290098
0.329313
0.321790
0.358086
0.341739
0.332826
0.320798
0.335337
0.314978
0.318331
0.314743
0.313773
0.320322
0.326149
0.330153
0.321919
0.302769
0.287073
0.280823
0.270515
0.249961
0.210848
0.203281
0.188353
0.174235
0.187450
0.205182
0.205719
0.189792
0.179326
0.206156
0.223379
0.242285
0.259891
0.269312
0.282191
0.280467
0.302729
0.310270
0.320527
0.327151
0.332716
0.331340
0.335399
0.326095
0.330879
0.335246
0.325049
0.321240
0.194703
0.208901
0.334826
0.340867
0.334548
0.324047
0.326113
0.328778
0.338132
0.282677
0.268097
0.242628
0.265277
0.255757
0.293013
0.255985
0.264690
0.297354
0.277710
0.260249
0.297832
0.321527
0.317973
0.288728
0.276767
0.288465
0.314448
0.327792
0.348294
0.350957
0.340432
0.324316
0.323576
0.327439
0.318788
0.303733
0.307797
0.299690
0.291245
0.284000
0.290754
0.284105
0.279377
0.216009
0.219009
0.237504
0.258402
0.254988
0.286122
0.305316
0.298841
0.289099
0.311564
0.325608
0.325423
0.335546
0.328630
0.335085
0.328782
0.323577
0.327498
0.323731
0.327445
0.328417
0.330058
0.314934
0.305137
0.311462
0.310232
0.299837
0.304154
0.323052
0.320167
0.315391
0.319146
0.305222
0.249728
0.272902
-0.002353
0.237207
0.286308
0.278821
0.278708
0.246220
0.184398
0.023018
0.139207
0.226051
0.185728
0.218178
0.252320
0.249569
0.258306
0.261623
0.264824
0.258350
0.327074
0.339819
0.324328
0.320344
0.321448
0.324470
0.272412
0.255001
0.245284
0.237858
0.208449
0.257389
0.232005
0.275240
0.292369
0.276654
0.246863
0.302964
0.335108
0.240304
0.240429
0.298756
0.290197
0.310759
0.336721
0.333871
0.348587
0.330220
0.270868
0.274648
0.267848
0.211566
0.329446
0.337102
0.327648
0.325203
0.309561
0.311494
0.263742
0.246985
0.242166
0.212498
0.180180
0.174260
0.198872
0.292719
0.303889
0.283788
0.306726
0.303532
0.257914
0.209164
0.182744
0.277072
0.291776
0.306330
0.339987
0.334545
0.348942
0.332753
0.324640
0.319739
0.335157
0.320834
0.312900
0.313185
0.222200
0.263890
0.326526
0.323360
0.323868
0.319615
0.305680
0.257847
0.135627
0.086872
0.224847
0.299511
0.293132
0.282094
0.279900
0.279731
0.280813
0.307093
0.305510
0.319107
0.320190
0.335745
0.327886
0.304649
0.298655
0.212483
0.094681
0.216185
0.139543
0.241425
0.302962
0.301883
0.314480
0.337924
0.332770
0.342257
0.246218
0.339657
0.324330
0.306928
0.316987
0.148156
0.173619
0.140481
0.185322
0.187119
0.225804
0.251274
0.283059
0.277136
0.272443
0.112855
0.133075
0.211815
0.229635
0.241898
0.267882
0.295401
0.226597
0.251172
0.255234
0.294043
0.288575
0.304281
0.245551
0.245812
0.258668
0.333681
0.317519
0.328058
0.296578
0.243168
0.266594
0.321571
0.319441
0.323239
0.345224
0.332628
0.333162
0.323236
-0.127835
-0.015252
0.137897
0.005104
0.292251
0.303475
0.315866
0.319516
0.285543
0.224258
0.278795
0.245555
0.190719
0.146936
0.301883
0.283582
0.245977
0.266385
0.190302
0.251444
0.258917
0.240245
0.300898
0.301131
0.311340
0.147504
0.153201
0.215132
0.226760
SCALARS V11_SP5(MPa) float 1
LOOKUP_TABLE default
1.580510
1.586193
1.440007
1.500420
1.388108
1.023593
0.839869
0.706541
0.857412
0.718042
0.682597
0.766640
0.882192
0.910852
1.025231
1.153714
1.449402
1.369079
1.135549
1.122962
0.779136
1.035432
1.064668
0.952923
1.078427
0.916998
1.371673
1.108086
1.191221
1.133586
0.785761
1.427929
1.265824
1.393797
1.299095
1.366537
1.265786
0.944047
0.878852
0.705713
0.725453
0.841899
0.927656
0.855009
1.079661
0.959686
0.924293
1.202243
1.442729
1.304750
1.041346
1.329523
1.339291
1.284499
1.364859
1.354834
1.335877
1.417586
1.329779
1.247566
1.475840
1.325634
1.122615
1.498644
1.456401
1.504902
1.343367
1.442002
1.051396
1.028890
1.212291
1.042962
0.807673
1.342624
1.250189
1.199440
0.928134
0.783684
0.845110
1.240959
1.350797
1.095984
0.934061
1.203738
1.427864
1.564494
1.514545
1.130168
1.120260
0.892589
0.787858
0.773305
1.002285
1.394284
1.338165
1.101826
1.196297
1.032894
0.809394
1.042066
0.763526
1.337367
1.263482
1.382520
1.481737
1.478769
1.561500
1.512512
1.511435
1.495820
1.498271
1.501308
1.518111
1.444029
1.450030
1.497695
1.551858
1.564592
1.600202
1.447673
1.069739
1.185182
0.932436
0.886389
0.979678
0.905676
0.859687
1.013827
1.190364
0.939155
0.717565
0.799115
1.205667
1.261470
0.766180
0.702401
0.844184
0.819059
0.731145
0.747535
0.785730
0.816844
0.959694
1.208236
1.083781
1.091840
1.165138
1.224159
1.422058
1.183931
1.235171
1.022549
0.838528
0.757870
0.845120
1.481888
1.583657
1.562761
1.481066
0.879888
1.377784
1.212400
0.787927
0.803605
0.656662
0.655545
0.669113
0.690860
0.898686
1.265249
1.242313
1.389698
1.428605
1.186910
1.064726
0.976182
0.984248
0.854718
1.190712
1.099815
1.117805
1.027965
0.911923
0.986369
0.951513
1.054638
1.302888
1.176234
1.177102
1.266640
1.288594
1.171459
0.770671
0.755026
0.648387
0.713645
0.693770
0.776899
1.005051
1.094390
1.108300
1.308119
1.400316
1.539594
1.524224
1.415720
1.365826
1.136874
0.987050
0.833601
1.138124
1.073158
0.949489
0.966032
1.453054
0.752930
1.222205
1.462321
1.332052
1.237026
1.164057
1.141364
1.259693
1.139061
1.171555
1.073927
1.099337
1.450379
1.291766
0.949817
0.940509
0.823107
1.008247
1.281915
1.292154
1.073421
1.283787
1.599402
1.455727
1.388542
1.237296
0.789794
0.804908
0.860384
0.824177
0.776173
0.923554
1.269018
1.466504
1.103860
0.895654
0.798336
0.781272
1.148413
1.102011
0.888071
1.164217
1.538895
1.566302
1.523246
1.492005
1.476011
1.441302
1.346372
1.373990
1.413560
1.483100
1.527055
1.558644
1.553207
1.574913
1.622530
1.455800
1.048782
0.970462
1.021150
0.827305
0.912744
0.817548
0.801602
0.927061
0.896738
0.932336
0.949419
1.181405
1.491206
1.581891
1.354345
0.875133
0.786691
0.805976
0.856188
0.756341
0.777797
0.881281
1.067919
1.076582
1.077084
1.137254
1.214223
1.301130
1.395583
1.256993
1.205741
1.105038
0.974078
0.728911
0.885499
1.496632
1.521926
1.489511
1.140139
1.321497
1.154844
0.802501
0.747500
0.687863
0.655732
0.652061
0.641693
0.801962
1.145483
1.216120
1.395505
1.413631
1.180558
0.950862
0.892317
0.828923
0.897130
1.053970
1.003709
1.093485
0.909714
0.949193
0.988668
0.793709
0.785465
1.142678
1.136396
1.186594
1.312923
1.336861
1.175429
0.818825
0.602226
0.695607
0.678662
0.994186
1.236681
1.230594
1.248800
1.479463
1.457022
1.433909
1.399412
1.564655
1.346863
1.325875
1.030528
1.097597
1.046168
1.125613
1.446794
1.003220
1.289888
0.923721
1.066530
0.977398
1.267276
1.393896
1.434766
1.496900
1.339673
1.238624
1.498305
1.413408
1.279660
1.255855
0.871732
0.953263
1.324400
1.333450
1.359266
0.725747
1.552310
1.509404
1.441230
0.821714
0.730205
0.727296
0.818991
0.690361
0.987541
0.994794
0.714664
1.440053
1.012069
1.389998
1.071313
1.111528
1.227041
1.306236
1.328763
1.360054
1.383281
1.351945
1.293553
1.281489
1.323135
1.355136
1.458300
1.506260
1.530251
1.549892
1.595068
1.544314
1.606683
1.423941
1.372276
0.949369
0.964065
0.816798
0.828782
0.843099
0.892981
0.922164
0.958721
1.099113
1.316176
1.487353
1.549665
1.652212
1.536595
1.478708
1.120176
0.917471
0.856048
0.866074
0.984205
1.081319
0.973633
0.977335
1.093032
1.229755
1.358450
1.549145
1.593457
1.501340
1.489126
1.204073
0.839848
0.832429
1.108825
1.101063
1.561827
1.511250
1.423330
1.333493
1.154625
0.987068
0.973259
0.765596
0.712631
0.775924
0.768625
0.856424
0.856057
0.967095
0.854948
0.761077
0.856465
0.752174
0.650502
0.871045
0.920848
1.294962
0.899131
0.877679
1.325830
1.601179
1.585799
0.651261
0.726939
0.818079
1.272903
1.313677
1.187653
1.040799
0.922128
0.852053
0.766240
0.750527
0.750306
0.734552
0.744340
0.764012
0.800161
0.840648
0.902801
0.945280
0.949548
0.978733
0.911314
0.939843
0.834155
0.867827
0.899498
0.914790
0.856796
0.909985
0.937037
0.839733
0.929327
0.895360
1.004857
0.986413
0.915530
1.043032
0.993212
0.934577
1.053644
1.035256
0.922293
1.021767
1.007163
1.042545
1.087693
1.053179
1.014999
1.102446
1.123872
1.053620
1.152146
1.099206
1.135262
1.154046
1.019980
1.091292
1.150056
1.120988
1.154522
1.257580
1.157740
1.187067
1.122041
1.157205
1.105530
1.098960
1.109636
1.174454
1.164339
1.176477
1.140517
1.188844
1.126983
1.120028
1.129614
1.067674
1.095610
1.173563
1.089738
1.131167
1.151754
1.086300
1.067867
1.125654
1.143631
1.096888
1.101453
1.099124
0.970160
0.984211
0.917280
1.015970
0.993960
0.910043
0.992150
0.909479
0.907047
0.961154
0.875165
0.932304
0.942407
0.966031
1.007893
1.025650
0.968767
1.025456
1.032749
1.006202
1.035003
1.050613
0.990112
1.040350
1.014013
0.992488
1.011442
0.996895
0.950756
1.053949
1.008477
1.036129
1.018812
1.050995
1.036602
1.098624
1.124415
1.062420
1.084095
1.107353
1.168973
1.093682
1.174135
1.161185
1.155930
1.112749
1.083235
1.058900
1.198206
1.434038
1.252152
1.325064
1.122362
1.262991
1.102239
1.180595
1.086279
1.100528
1.094152
1.017214
1.068557
1.200538
1.009419
1.098753
1.002663
0.887362
0.817371
0.951530
1.090610
1.224413
1.468211
1.495969
1.391480
1.384827
1.362300
1.291972
1.499358
1.438455
1.357794
1.158578
0.958692
0.869359
0.717021
0.639177
0.682496
0.818574
0.748199
0.710804
0.803548
1.430355
1.458783
0.802103
0.807508
0.753996
0.730290
0.716683
0.702708
0.693722
0.693387
0.696611
0.711765
0.745151
0.775268
0.804766
0.816616
0.864579
0.901172
0.746168
0.786194
0.701095
0.640296
0.646967
0.840863
1.252899
1.152366
1.089302
1.387510
0.922392
0.784634
0.716616
1.474700
0.911136
0.929589
1.292680
0.925594
1.128029
0.830900
0.847380
0.861011
0.860600
0.843939
0.853842
0.864029
0.845367
0.886098
0.872001
0.921367
0.914245
0.910484
0.943206
0.927024
0.885644
0.949774
0.955703
0.935173
0.957510
0.953237
1.007614
0.965466
1.022083
1.024922
1.023082
1.076739
1.037482
1.109145
1.088757
1.139959
1.194886
1.072082
1.025696
1.050308
1.075742
1.121346
1.105669
1.212199
1.176595
1.122418
1.133796
1.135042
1.107167
1.107612
1.135863
1.142755
1.133072
1.058595
1.062765
1.096704
1.130923
1.074813
1.077115
1.136187
1.095190
1.034360
1.107429
1.074132
1.026504
1.001160
0.988899
1.002246
0.948863
0.970961
0.979752
0.959544
1.022653
0.966183
0.980653
0.950228
0.922047
0.905284
0.911872
0.839866
0.912882
0.932625
0.911278
0.882753
0.862916
0.816032
0.938978
0.930798
0.887505
0.923263
0.901423
0.913641
0.921038
0.918280
0.959162
0.959794
0.951913
0.993899
0.944108
0.938611
0.984610
1.026279
1.010653
1.039368
0.996697
0.998183
1.111864
1.111103
1.070289
1.134933
1.114378
1.104331
1.121489
1.097322
1.188849
1.196027
1.076191
1.108726
1.117936
1.075333
1.088326
0.991714
1.498402
0.833514
1.490036
1.010193
1.074750
1.010641
1.018760
1.034822
0.968242
0.939135
0.873875
0.994404
0.950691
0.996697
1.106554
1.419564
1.482763
1.275966
1.475346
1.376789
1.511326
0.676915
0.737787
0.697186
0.683597
0.699858
0.884272
1.123566
1.099445
1.152354
1.154187
1.124471
1.006075
0.905323
1.245143
1.326150
1.453510
1.506967
1.506296
1.371569
1.401827
1.319930
1.113535
0.903483
0.609190
0.649632
0.837410
0.663194
0.823025
0.826417
0.816094
0.827723
0.827552
0.840965
0.832405
0.828248
0.850956
0.852720
0.869544
0.878238
0.885612
0.898111
0.876433
0.877062
0.926817
0.952751
0.896489
0.924747
0.936078
1.001525
0.969851
1.051541
1.059337
1.071946
1.112111
1.102588
1.142342
1.152478
1.193508
1.170134
1.071897
0.987304
1.047888
1.058885
1.104674
1.076189
1.168941
1.135652
1.119075
1.152356
1.071803
1.141694
1.130706
1.089628
1.093523
1.118943
1.070876
1.138699
1.098877
1.126030
1.076251
1.091389
1.052848
1.063874
1.051031
1.037903
1.036864
1.032181
1.020082
0.966157
0.987199
0.990580
1.002848
0.969044
0.957330
0.979007
1.007456
0.956646
0.925618
0.921229
0.857516
0.917661
0.847240
0.851409
0.894019
0.883188
0.894061
0.888967
0.887869
0.915273
0.911747
0.873057
0.899622
0.898731
0.883710
0.874925
0.924430
0.939433
0.934660
0.969268
0.976335
0.961017
0.965933
0.982630
1.041660
0.957532
1.051910
1.031595
0.997327
1.143921
1.092206
1.097962
1.101625
1.058818
1.061523
1.122228
1.093067
1.203221
1.092118
1.034341
1.079057
1.109643
1.050328
0.959834
1.199118
1.225839
1.463069
1.276464
1.385722
1.349676
1.317745
1.204684
1.107995
1.058103
1.295622
1.401704
1.250069
1.303958
1.253257
1.387022
1.484749
1.460668
1.505011
1.615681
0.811450
0.774497
0.732110
0.707406
0.702023
0.697914
0.693944
0.697299
0.709817
0.737651
0.775845
0.798873
0.805838
1.126346
1.114796
0.969203
0.870355
1.512605
1.461522
1.367981
1.500575
1.487737
1.580094
1.575616
1.595975
1.549847
1.232540
1.263288
1.455507
1.273399
0.932984
0.780695
0.761341
0.771225
0.924137
1.098133
1.217398
1.197023
1.379396
1.365557
1.099591
0.905983
0.860856
0.881792
1.020925
1.239753
1.008082
0.964033
0.868230
0.801955
0.763120
0.925779
0.867277
0.920666
0.924409
1.267502
1.441421
1.181500
0.825524
0.745113
0.804603
0.832871
0.630457
0.611576
0.859541
1.048089
1.186517
1.244530
1.426652
1.016874
1.563038
1.539763
1.479036
1.352625
1.173158
1.495880
1.283281
1.296701
1.275403
1.213848
1.521577
1.208132
0.793874
0.884912
0.886646
0.703215
1.357334
1.413844
1.560551
1.552672
1.486263
1.502563
1.526243
1.619458
1.431361
1.204480
1.344434
1.183331
0.902144
0.886658
1.059109
1.383171
1.525811
1.653428
1.005810
1.210161
0.964499
0.763070
1.638052
1.593686
1.597144
1.542001
1.320883
1.177061
1.049286
0.914584
0.894358
0.767027
0.765904
0.941663
0.821651
0.674419
1.143443
1.286612
1.168690
1.012921
0.935243
1.145907
1.283446
1.284497
0.971034
1.114728
1.230496
1.205393
1.250523
1.262833
1.284233
1.251418
1.228257
1.239922
1.281883
1.341782
1.425553
1.466798
1.517376
1.546676
1.541490
1.574263
1.499226
1.405289
1.257153
1.074409
0.961008
0.911374
0.811564
0.824582
0.845731
0.909339
1.008993
1.116719
1.280693
1.490904
1.584385
1.637275
1.563514
1.504697
1.269945
1.048198
0.963363
0.935588
1.036390
1.188548
0.906815
0.916072
0.937840
1.100532
1.362130
1.492055
1.589036
1.510069
1.469702
1.362574
0.960359
0.963262
1.062311
1.068035
1.249057
1.321792
0.845140
1.302265
1.485067
1.388902
1.469726
1.502166
1.533211
1.556213
1.597605
1.519306
1.330006
1.224362
1.553432
1.162838
1.005008
0.830845
0.779008
0.785717
0.870585
0.994373
1.224192
1.543644
1.553326
1.539985
1.336274
1.034112
0.915262
0.882086
0.938516
1.007864
1.037200
0.883564
0.814569
0.715889
0.785748
0.758309
0.749935
0.811839
1.541585
1.224605
0.891368
0.807501
0.824432
1.102901
1.162695
1.426676
1.518251
1.508829
1.389016
1.300533
1.291903
1.528508
1.628886
1.576723
1.495882
1.381236
1.289375
1.275897
1.468585
1.373341
1.468417
1.473959
1.410964
0.725895
0.907637
0.796120
1.096865
1.296861
1.451988
1.539628
1.530563
1.478578
1.593147
1.607110
1.577191
1.434850
1.351297
1.350345
1.287374
1.103761
0.954337
0.968718
1.108826
1.431104
1.594151
1.557349
1.254817
1.129040
0.988123
1.016862
0.947818
1.068012
1.542100
1.600363
1.594582
1.574576
1.420294
1.313514
1.172738
1.099451
1.028907
0.926587
0.850435
0.813972
0.832029
1.007300
1.242926
1.295715
1.248626
1.077531
1.536067
1.416889
1.308767
1.194009
0.917755
1.203846
1.533100
1.350748
1.278667
1.287704
1.448513
1.381263
1.241849
1.352345
1.389296
1.382843
1.426049
1.360891
1.038934
0.792537
0.634227
0.655693
0.837484
0.696785
0.719622
0.724621
0.705151
0.716670
0.781304
1.003806
1.039982
1.088983
1.042294
1.005136
0.938521
0.789246
0.790520
0.818693
0.832608
0.845887
0.847182
0.832398
0.836734
0.837750
0.842675
0.869561
0.870259
0.878307
0.892969
0.872453
0.887510
0.927561
0.972956
0.943882
0.924019
0.927613
0.949082
1.014534
1.078601
1.081248
1.095704
1.138397
1.174585
1.195792
1.202666
1.173010
1.018921
0.987591
1.002288
1.013173
1.032877
1.076429
1.107312
1.124596
1.150051
1.169470
1.064944
1.115429
1.098115
1.136389
1.099307
1.126158
1.090440
1.085265
1.009509
1.089444
1.066210
1.094131
1.031734
1.065650
1.048977
1.013282
1.029879
1.006439
0.978984
0.915276
0.894230
0.934249
0.962202
0.959474
1.001441
0.994066
1.019753
0.971087
0.968674
0.927988
0.874712
0.876382
0.815974
0.843216
0.873831
0.874870
0.855600
0.862979
0.866107
0.885895
0.890746
0.882514
0.878978
0.910914
0.869409
0.889095
0.942514
0.919668
0.883082
0.891017
0.920032
0.918972
0.968315
0.986342
0.997877
0.953434
0.985964
0.934208
1.080660
1.053902
1.085698
1.124084
1.125765
1.099757
1.112017
1.128401
1.092483
1.138941
1.034890
1.013490
1.052058
1.059693
1.033268
1.040530
1.199425
1.343243
1.455086
1.403378
0.962367
1.004305
0.739249
0.723218
0.709699
0.695538
0.697818
0.696330
0.697672
0.712768
0.746449
0.767389
0.782537
1.241731
1.195051
1.206011
1.190807
1.233484
1.211735
1.168346
1.165297
1.186047
1.228841
1.296905
1.391144
1.441997
1.485723
1.530306
1.529025
1.476066
1.337705
1.161217
1.079841
0.965896
0.855988
0.884239
0.933893
1.053468
1.173005
1.304116
1.467967
1.604913
1.629083
1.560969
1.491243
1.334263
1.216658
1.067934
1.082178
1.209171
1.536505
1.373271
1.260143
1.270546
1.214395
1.485210
1.221419
1.114294
1.247748
1.391648
1.337307
1.339338
1.195192
0.878015
0.690826
0.659579
0.758733
0.667745
0.716764
0.726970
0.729669
0.729782
0.786039
0.885747
0.951408
0.945243
0.910378
0.865763
0.904981
0.809259
1.307945
1.440122
1.391053
0.995791
1.257697
1.438327
1.221060
1.238016
1.148876
1.112842
1.134329
1.164645
1.130438
1.133883
1.130597
1.143793
1.226925
1.305497
1.372561
1.452905
1.458891
1.428292
1.323543
1.172240
1.028744
0.954544
0.886688
0.898851
0.929986
0.978953
1.108950
1.213165
1.611891
1.617900
1.517319
1.446236
1.369216
1.281626
1.158094
1.090489
1.214541
1.369822
1.239963
1.252623
1.400434
1.530703
1.323901
1.330785
1.436423
1.561598
1.530199
1.476516
1.428324
1.323517
1.289262
1.177948
1.068569
1.040250
1.134000
1.014548
1.184446
1.155621
1.341035
1.490294
1.506886
1.522598
0.757999
0.734458
0.716729
0.708516
0.704473
0.704749
0.729801
0.750455
0.772315
0.807144
0.823924
0.849675
0.850666
0.857075
0.854514
0.861483
0.850950
0.864706
0.899381
0.848702
0.928628
0.907596
0.921731
0.993356
0.990306
0.963668
0.914601
0.920990
0.946501
0.990005
1.057479
1.118309
1.195715
1.213243
1.228078
1.254789
1.192357
1.011614
0.917264
0.945123
0.994739
0.996117
1.068714
1.119468
1.114220
1.144353
1.174460
1.134008
1.103077
1.080681
1.103599
1.116595
1.127701
1.088051
1.075832
1.053738
1.090954
1.042116
1.042321
1.010286
1.007689
0.979500
1.024450
1.021751
1.016516
1.010787
0.952648
0.926145
0.941102
0.967886
0.955757
0.976297
0.948295
0.957463
0.934976
0.958558
0.888228
0.868271
0.845956
0.824899
0.818200
0.855029
0.835708
0.863215
0.863002
0.829620
0.873978
0.888043
0.875141
0.872239
0.885397
0.887336
0.857754
0.902861
0.872655
0.901622
0.908444
0.916140
0.913494
0.932640
1.013204
0.982498
1.002512
0.993811
1.005564
1.035202
1.025371
1.029104
1.149678
1.153411
1.141430
1.088013
1.098384
1.136522
1.070131
1.058620
1.009369
1.051298
1.006050
0.987880
1.001154
1.073697
1.364748
1.376253
1.577280
1.493820
1.302430
1.251417
0.727822
0.800290
1.037222
1.460744
1.167454
0.914692
0.846418
0.868029
1.041961
1.233102
1.336223
1.541008
1.604354
1.512740
1.471801
1.348592
1.288591
1.350381
1.407613
1.532500
1.417084
1.349987
1.410839
1.477502
1.475562
1.534772
1.353718
0.930226
0.959770
1.194289
1.211611
1.382693
1.518269
1.490624
1.520025
1.535727
1.601392
1.608764
1.522281
1.437216
1.440366
1.485692
1.169847
1.215193
1.227932
1.157787
1.236342
1.478436
1.455160
1.523340
1.578279
1.526561
1.416791
1.401809
1.284845
1.128083
1.094396
0.931371
0.965796
1.119854
1.435976
1.547997
1.525184
1.270774
1.166825
1.085029
0.942305
1.083052
0.983264
1.026370
1.286158
1.511445
1.586820
1.578667
1.516534
1.452084
1.415835
1.260410
1.121078
1.054721
0.972695
0.912900
0.861486
0.853300
0.876980
1.049082
1.244360
1.342447
1.454872
1.497269
1.343266
1.300946
0.897033
0.678347
0.710587
0.666078
0.693447
0.717073
0.747296
1.579471
0.900115
0.949126
0.934822
0.930850
0.992469
1.092035
1.253308
1.311999
1.424037
1.561639
1.596095
1.578662
1.535918
1.488487
1.414769
1.278425
1.202589
1.132587
1.160230
1.335036
1.399570
1.349353
1.329897
1.298213
1.281777
1.349693
1.533609
1.530002
1.471445
1.472404
1.452631
1.385113
1.280204
1.200775
1.114487
1.027851
0.951355
1.017994
1.156081
1.312658
1.399738
1.219699
1.381507
1.466099
1.408040
1.473963
1.329440
1.227768
1.080862
0.942166
0.965327
1.217174
1.396448
1.444315
1.463928
1.310459
1.491534
1.469366
1.546402
1.560461
1.552331
1.560956
1.589972
1.516924
1.485577
1.403965
1.417468
0.946057
0.832601
0.782099
0.819425
0.877152
1.056791
1.329745
1.515654
1.536700
1.527035
1.372194
1.091659
0.947637
0.922177
0.916781
0.944329
0.875939
0.726672
0.738001
0.733963
0.723531
0.853876
0.893519
0.903343
0.863566
0.814890
0.770248
0.820560
0.823983
0.780789
0.741867
0.720627
0.717445
0.718232
0.738207
0.760657
0.785084
0.841006
0.837266
0.894468
0.899847
0.919622
0.902277
0.946800
0.929690
0.890122
0.868574
0.899563
0.878590
1.062866
1.117002
1.013124
0.997979
0.921342
0.906292
0.956216
0.998731
1.082777
1.166033
1.229474
1.175021
1.193822
1.329410
1.148358
0.813727
0.861052
0.872666
0.960670
1.016717
1.071878
1.119155
1.102400
1.122374
1.134929
1.154861
1.117863
1.074647
1.092487
1.121647
1.135514
1.049390
1.053710
1.047420
1.060646
1.055443
1.071079
0.974845
1.029598
1.042966
1.018963
0.975180
0.982200
0.962576
0.926594
0.896333
0.911962
0.940151
0.953044
0.935539
0.937088
0.958118
1.008998
0.890124
0.811624
0.797031
0.791562
0.803849
0.813372
0.826195
0.819345
0.831448
0.844861
0.844288
0.858268
0.852238
0.857224
0.868386
0.858151
0.858326
0.864895
0.860093
0.899421
0.861508
0.860521
0.902303
0.938699
0.935302
0.948034
0.966332
0.982564
0.945362
0.969983
0.993541
0.999810
1.073074
1.072238
1.112587
1.105328
1.107260
1.092025
1.056347
1.084876
1.026912
1.067458
1.016372
0.964426
0.976657
1.107574
1.312780
1.463198
1.516024
1.555280
0.845539
0.831857
1.484384
1.538231
1.551529
1.579892
1.543340
1.550417
1.436202
1.401082
1.284552
1.368448
1.432296
1.544170
1.492010
1.335600
1.351756
1.031991
1.004568
0.962534
0.938694
0.912173
1.029258
1.135219
1.245587
1.277043
1.336803
1.482106
1.571007
1.567902
1.558711
1.580789
1.419099
1.417250
1.266183
1.175369
1.138001
1.161662
1.359687
1.289134
1.361939
1.343126
1.311384
1.276696
1.330719
1.404282
1.542002
1.462196
1.432931
1.374379
1.342271
1.271823
1.208135
1.148623
1.138106
1.091451
1.358062
1.542835
1.477430
1.500367
1.381949
0.870254
0.863383
0.904302
0.939340
1.095787
1.327156
1.504484
1.510223
1.439801
1.267380
1.068047
0.928085
0.872133
0.815545
0.834045
0.812716
0.706181
0.728393
0.727727
0.744646
1.322115
0.825982
0.682970
0.714607
0.711659
0.729197
0.774063
0.755976
0.821160
0.778596
0.824022
0.854829
0.856974
0.842175
0.805456
0.764696
0.728477
0.747723
0.792582
0.996241
1.104175
1.403708
1.513560
1.466941
1.296719
1.132199
1.139116
1.097052
0.968639
1.051609
1.026227
1.067721
1.175592
1.356624
1.468592
1.541245
1.552852
1.509830
1.501175
1.445319
1.336827
1.174553
1.056583
1.017322
0.957881
0.968274
0.931099
0.871231
0.750448
0.716073
0.715064
0.727066
0.750073
0.780557
0.827939
0.821345
0.921997
0.939642
1.047941
0.995621
1.027940
0.894727
0.918497
0.951425
0.898869
1.135946
1.131354
1.041573
0.981855
0.920560
0.906631
0.935361
0.973805
1.083644
1.131435
1.106922
1.114245
1.211401
1.263192
0.897968
0.762732
0.819938
0.867256
0.982673
1.010234
1.050173
1.078170
1.101263
1.114767
1.085244
1.133911
1.116765
1.079021
1.100176
1.120970
1.092231
1.044942
1.076175
1.118277
1.023691
1.093139
1.044875
1.005859
0.998395
1.018046
0.968242
0.968122
0.945218
0.909780
0.884964
0.887119
0.906307
0.910192
0.917971
0.926484
0.944202
0.954938
0.955326
0.830759
0.736644
0.750138
0.745755
0.759029
0.779000
0.785944
0.790014
0.808235
0.776534
0.809726
0.813936
0.814963
0.839355
0.846800
0.836189
0.833954
0.841354
0.861046
0.855698
0.858211
0.836192
0.819578
0.850223
0.860129
0.867908
0.870550
0.917473
0.939794
0.951369
0.933254
0.963118
0.936237
0.929243
0.985078
1.045508
1.047210
1.086714
1.062969
1.089640
1.067267
1.095105
1.041867
1.069763
1.034132
1.042274
1.025477
1.010872
1.054531
1.090298
1.254604
1.391938
1.524019
1.130632
1.071232
1.043414
1.015062
0.954089
0.983745
1.103580
1.171140
1.277196
1.294021
1.366337
1.455729
1.546260
1.540640
1.490860
1.402792
1.358104
1.364536
1.212753
1.170070
1.193416
1.201162
1.308689
1.305983
1.302042
1.299369
1.321493
1.314172
1.287979
1.346850
1.408648
1.514771
1.490505
1.452689
1.416771
1.371272
1.309496
1.263386
1.207034
1.153076
1.112564
1.079842
1.136956
1.107530
1.384178
1.265058
1.301400
1.367834
1.491614
1.353025
1.359995
1.397424
1.297054
1.323721
1.121088
1.320948
1.292803
1.335631
1.436749
1.317133
1.134522
1.185695
1.182914
1.327896
1.216057
1.355659
1.328791
1.222305
1.174691
1.221731
1.166643
1.126279
1.105148
1.103422
1.166532
1.247142
1.321427
1.388526
1.382589
1.380212
1.252853
1.043375
0.915732
0.916589
0.884451
0.965850
1.185677
1.271049
1.236982
1.306442
1.563949
1.488674
1.431635
1.293867
1.205376
1.070641
1.058579
0.917151
1.012139
1.123999
1.298513
1.396607
1.152987
0.925934
0.857716
0.909266
1.059264
1.252780
1.341451
1.404249
1.514436
1.485148
1.081053
1.249891
1.260527
1.286942
1.342231
1.305192
1.498024
1.496013
1.563311
1.554863
0.879513
1.058348
0.809706
0.829547
0.852353
0.839552
0.811763
0.781196
0.741771
0.730749
0.722260
1.041492
1.321675
1.457746
1.401479
1.281335
1.160856
1.118670
1.090982
1.029026
1.160290
1.048911
1.093208
1.075798
1.091529
1.209240
1.346944
1.501772
1.515506
1.536182
1.528860
1.482087
1.396134
1.305096
1.306413
1.345738
1.196400
1.208627
1.244360
1.217952
1.167482
1.397952
0.724637
0.734366
0.779268
0.831028
0.872705
1.175662
0.884051
0.840854
0.919890
0.879682
1.274210
1.153549
1.035109
0.966914
0.933607
0.916339
0.934294
0.957425
1.041329
1.088435
1.131919
1.251331
1.211244
0.989626
0.832593
0.822769
0.820182
0.994691
0.992364
1.032242
1.083180
1.112373
1.156086
1.153398
1.108107
1.063891
1.115671
1.102699
1.092185
1.101339
1.109887
1.069038
1.092653
1.106745
1.061882
1.102480
1.027769
1.027319
0.964594
1.000546
0.942514
0.961686
0.901054
0.907343
0.874134
0.874415
0.875410
0.871826
0.865576
0.880860
0.901665
0.914706
0.872832
0.727669
0.644485
0.712830
0.703820
0.717008
0.733257
0.757838
0.775793
0.796765
1.229973
0.728590
0.735706
0.779435
0.821041
0.896611
1.086463
1.221607
0.970607
0.825319
0.969399
0.913979
1.038886
1.008034
0.968666
0.908689
0.885629
0.890996
0.922489
0.968452
0.985562
1.093849
1.288607
0.962622
0.983200
0.907719
0.753231
0.833297
0.880980
0.975880
1.025392
1.077392
1.101094
1.140128
1.149965
1.122351
1.090427
1.062849
1.140979
1.130279
1.088570
1.085750
1.086154
1.043324
1.121375
1.073317
1.067510
1.034781
1.051801
1.013309
0.990194
0.956271
0.910454
0.921862
0.889315
0.888255
0.885094
0.872487
0.833974
0.821964
0.827172
0.806333
0.837836
0.742040
0.751493
0.718801
0.692001
0.688982
0.699118
0.712056
0.734951
0.769923
0.789845
0.795357
0.863365
0.854679
0.786193
0.859473
0.906925
1.108368
1.180301
1.208204
1.328257
1.154828
0.970261
0.891896
1.000788
1.045697
1.092769
1.177600
1.288660
1.360644
1.474474
1.466925
1.504589
1.446391
1.356897
1.294758
1.413122
1.393413
1.461755
1.465755
1.348605
1.284144
1.303850
1.359036
1.342354
1.378119
1.293468
0.942483
1.106459
1.303430
1.187378
1.068226
1.210041
1.304598
1.162915
1.116029
1.033127
1.046537
0.958039
0.909742
0.860504
0.814963
0.944127
1.063778
1.055893
1.135447
1.047799
0.929062
0.838332
1.415039
1.374946
1.496296
1.117961
1.033299
0.927094
0.935801
0.915483
0.915748
0.972009
1.003878
1.124018
1.318449
1.430022
1.473500
1.353481
1.149939
0.989173
0.897851
0.850031
0.807298
0.772230
0.724318
0.736707
0.759198
0.776035
0.805556
1.153451
1.249423
0.869534
0.948274
0.889105
0.865273
0.890067
0.876901
0.860059
0.858153
0.850158
0.890704
0.925111
0.961623
1.149838
1.312815
1.399711
0.958198
0.911394
0.980266
0.951818
0.989433
1.011495
1.057287
1.101178
1.100239
1.154779
1.151777
1.179673
1.134576
1.104814
1.159085
1.141850
1.072204
1.084447
1.090609
1.080014
1.136687
1.119254
1.070968
1.040674
1.046887
1.025607
0.980376
0.977352
0.922173
0.909185
0.900733
0.903454
0.871328
0.847778
0.838606
0.820545
0.840016
0.810647
0.798901
0.960307
0.963107
0.688608
0.699253
0.685414
0.683422
0.695961
0.732486
0.753542
0.777843
0.797606
0.796500
0.814240
0.832373
0.834396
0.824203
0.822725
0.820845
0.849648
0.850841
0.842255
0.828024
0.850328
0.824164
0.844669
0.864048
0.854621
0.901153
0.909885
0.925088
0.907356
0.928410
0.905865
0.938355
0.978426
0.995989
1.008154
1.072801
1.023199
1.049726
1.080303
1.080680
1.070455
1.064149
1.080112
1.047405
1.040895
1.073249
1.141046
1.233851
1.279554
0.728492
0.746346
1.554466
1.527508
1.480440
1.429625
1.412314
1.233719
1.148034
1.033653
1.090529
1.367232
1.357552
1.254282
1.174971
1.124652
1.084708
1.080709
1.117705
1.081106
1.095620
1.089449
1.087423
1.070778
1.199094
1.329310
1.451862
1.477406
1.502550
1.498002
1.440930
1.360358
1.184862
1.112432
1.040828
0.936235
0.995383
1.005549
1.024705
1.044006
1.274883
1.116902
1.188024
1.210997
1.240112
1.197588
1.168945
1.215312
1.117124
1.114592
1.109945
1.172137
1.247995
1.304804
1.306169
1.245984
1.181055
0.827717
0.813433
0.806185
0.818770
0.811242
0.831136
0.826691
0.823344
0.833946
0.833673
0.798474
0.811444
0.851324
0.876485
0.902496
0.897093
0.912276
0.886905
0.905060
0.909818
0.944188
0.980464
0.997305
1.030177
1.048051
1.025585
1.056116
1.096524
1.099737
1.096094
1.093646
1.111693
1.077967
1.071165
1.103563
1.184212
1.262379
1.392319
0.812575
0.828339
0.894103
0.957453
1.065095
1.202135
1.186921
1.264962
1.121535
0.972056
0.923685
1.022719
1.071981
1.158309
1.174749
1.286489
1.356905
1.391552
1.394901
1.435795
1.431463
1.426713
1.355532
1.357412
1.351281
1.405616
1.455702
1.486563
1.474987
1.429864
1.381073
1.339459
1.298131
1.239232
1.207599
1.166237
1.125991
1.124518
1.037830
1.097038
1.038483
1.361397
1.302780
1.128276
1.088618
1.127359
1.003507
1.075557
1.063777
1.058156
1.008495
1.025903
0.963924
0.918481
0.875260
1.175380
1.073164
1.071078
1.003238
0.943681
0.784042
0.852023
0.867306
0.840889
0.813207
0.794880
0.754596
0.742307
0.758137
0.800090
0.842834
0.903243
1.478529
1.469217
1.453758
1.474338
1.378327
1.352301
1.320105
1.236622
1.159499
1.123579
1.145103
1.148150
1.113937
1.134629
1.285431
1.358908
1.294236
1.296753
1.204053
1.148498
1.111967
1.130137
1.149593
1.132219
1.342240
1.258967
1.200897
1.120123
1.021579
1.021387
0.969074
1.016035
1.141753
1.139716
1.087912
1.118921
1.132298
1.120662
1.423747
1.440209
1.457583
1.469019
1.458870
1.328900
1.231563
1.173968
0.998972
1.046794
0.962383
0.949913
0.998496
1.037661
1.104894
1.378640
1.409616
1.398811
1.388835
1.378842
1.372703
1.369143
1.299427
1.270550
1.210625
1.192422
1.155095
1.204887
1.206043
1.211964
1.319490
1.162275
1.228984
1.427370
1.253389
0.997772
1.151075
1.314791
1.303178
1.147940
1.133935
1.090837
1.109932
1.162185
1.224182
1.216716
1.193001
1.115817
1.050919
1.011651
1.037036
0.996285
1.048082
1.100000
1.174443
1.223091
1.288602
1.349833
1.449934
1.518978
1.528065
1.524329
1.432591
1.407568
1.220818
1.233988
1.164435
1.149603
1.158004
1.244192
1.262113
1.241489
1.306794
1.351875
1.336107
1.308479
1.278054
0.999949
1.025914
1.028191
1.133981
1.300346
1.356128
1.373644
1.283647
1.133714
0.995679
0.827824
0.797906
0.756492
0.744723
0.745052
0.754074
0.942643
0.936972
1.374246
1.401769
1.391881
1.397368
1.438998
1.398158
1.323302
1.375022
1.313327
1.244993
1.196920
1.114464
1.085119
1.160210
1.167409
1.127565
1.089299
1.102855
1.130503
1.156090
1.194410
1.201352
1.103048
1.107255
1.100325
1.049663
1.003582
1.104476
1.040007
1.076090
1.188934
1.255609
1.206618
1.288462
1.446252
1.519808
1.507489
1.524440
1.461377
1.412772
1.319505
1.321631
1.229710
1.230120
1.209428
1.248931
1.241118
1.295263
1.257670
1.289425
1.295969
1.308905
1.292951
1.312699
0.881296
0.935376
0.905275
0.864580
0.932030
0.951820
0.924980
0.827746
0.781553
0.843983
0.907722
0.936554
0.999456
1.098610
1.272356
1.188520
1.106662
0.991334
0.955379
1.036356
1.050756
1.110788
1.204728
1.185185
1.271103
1.320689
1.321626
1.338047
1.344082
1.348595
1.347891
1.338125
1.346397
1.350100
1.077868
1.050171
1.041009
1.111554
1.124820
1.264715
1.204410
1.166276
1.004542
0.968470
0.997084
0.987123
1.014707
0.847737
1.075908
1.151267
1.094816
1.095757
0.908896
0.838261
1.377134
1.402017
1.392353
1.398118
1.377499
1.293499
1.193469
1.132083
1.092547
1.024959
1.019005
1.026174
1.046287
1.029381
1.065570
1.096747
0.806168
0.802805
0.801955
0.804681
0.811409
0.803680
0.828855
0.808618
0.827751
0.819968
0.818235
0.840897
0.859621
0.898950
0.909190
0.856440
0.865683
0.854100
0.872829
0.948275
0.967649
0.974972
1.069670
1.017757
1.020836
1.047589
1.090594
1.090828
1.080684
1.073143
1.064307
1.015650
1.087278
1.077690
1.165145
1.246076
1.286953
0.989838
1.003886
0.960341
0.915061
0.862670
0.835444
0.798534
0.879544
1.195849
1.109547
1.056444
0.905634
0.901204
0.860269
0.821883
0.788681
0.783326
0.771757
0.777967
0.946295
1.073011
1.018209
0.970244
0.963222
0.934230
0.877974
0.878271
0.924556
0.940706
0.933656
0.900493
0.874955
0.840496
0.817666
0.804550
0.846081
0.857016
0.875723
0.826877
0.839131
0.846910
0.859937
1.114798
1.029002
0.968570
1.017981
0.975416
1.078438
1.050916
1.072098
1.110191
1.244770
1.310909
1.285512
1.204906
1.082100
0.939685
0.887900
0.868554
0.854422
0.827901
0.830376
0.767999
0.755045
0.786872
0.787502
1.320469
1.329615
1.325241
1.356384
1.345693
1.368842
0.955223
0.891116
0.876359
0.838736
0.817695
0.800715
1.011664
1.238584
0.971361
1.323077
1.132679
1.011158
1.030452
1.085067
1.120699
1.111932
1.085268
1.148036
1.155719
1.136803
1.072979
1.097600
1.136541
1.065459
1.085652
1.134611
1.123054
1.036360
1.069551
1.058278
1.088479
1.041402
1.028663
1.005756
0.967666
0.910668
0.921498
0.891522
0.851895
0.868627
1.048995
1.032548
1.021377
1.008716
1.032465
1.070832
1.113007
1.122548
1.134346
1.125145
0.966496
0.952626
0.972321
1.006822
1.006500
1.053356
0.904344
1.054638
1.131203
1.154202
1.096135
1.064578
1.121168
1.565217
1.498807
1.422052
1.438412
1.402101
1.380338
1.219744
1.154895
1.066241
1.004545
0.995801
1.001998
1.030171
1.073144
1.089672
1.097288
1.122242
0.867747
0.895293
0.890034
0.866956
0.854596
0.847011
0.838461
0.815588
0.791585
0.830963
0.802103
0.817276
0.774732
0.823268
0.845514
0.909443
0.819584
0.792107
0.848349
0.854207
0.854758
1.384035
1.398295
1.410641
1.327401
1.348935
1.278828
1.257772
1.267376
1.209675
1.199517
1.155739
1.230598
1.181174
1.382113
1.142795
1.264662
1.173882
1.173553
0.839451
0.821011
1.336503
1.336370
1.337373
1.359242
1.269114
1.249672
1.267420
1.196469
1.161147
1.149911
0.831071
0.857853
0.875754
0.913146
0.962517
0.967888
1.081511
1.123768
1.049575
0.956520
0.937605
1.023801
1.013770
1.071625
1.194089
1.164330
1.158477
1.191135
1.243473
1.267922
1.282052
1.271318
1.279887
1.308961
1.302023
0.806298
0.796387
0.784850
0.783373
0.798421
0.807461
0.816208
0.798709
0.821324
0.838482
0.816262
0.828021
0.821281
0.828699
0.793929
0.843316
0.862393
0.888978
0.892667
0.885050
0.874972
0.859783
0.888932
0.909978
0.937382
0.954211
0.996618
0.999031
1.041492
1.048305
1.091518
1.090010
1.046955
1.096573
1.028152
1.095180
0.997943
1.096736
1.085521
1.072305
1.084718
1.183463
1.256461
1.222864
1.140253
1.040516
0.818773
0.809868
0.811985
0.868518
0.835503
0.824365
0.802705
0.818844
0.839381
0.868844
0.840565
0.943729
0.918653
0.648926
0.659388
0.668086
0.705969
0.736761
0.765026
0.773844
0.784204
0.785305
0.788662
0.792150
0.801771
0.814805
0.830758
0.690869
0.693826
0.813829
0.781772
1.301997
1.302826
1.107801
1.091054
1.087458
1.106253
1.136681
1.154375
1.150218
1.122307
1.124905
1.089156
1.040907
1.063943
1.054365
1.086524
1.059830
1.178144
1.141780
1.237184
1.260965
1.467393
1.373918
1.338530
1.245196
1.194947
1.194722
1.203392
1.237533
1.210972
1.264009
1.229116
1.289736
1.279685
1.274863
1.295667
0.848602
0.842115
0.790912
0.824299
0.859851
0.806729
0.819923
0.818916
0.832633
0.858839
0.887863
0.841295
0.895625
0.850856
0.859468
0.884459
0.862792
0.965382
0.975722
0.978488
1.023667
1.037006
1.063845
1.071904
1.081926
1.035256
0.762526
1.112409
1.085501
1.012477
0.968387
0.994798
1.008352
1.058728
1.063087
1.114787
1.004385
1.063362
0.969020
0.910481
0.915162
0.949572
0.997896
1.032824
1.019326
1.106195
1.023384
0.976080
1.143426
1.188927
0.994206
0.870700
1.296374
1.391629
1.526878
1.432216
1.388342
1.387050
1.306712
1.357373
1.146529
1.024688
1.053564
1.032657
1.096817
1.129903
1.123873
1.172503
1.177700
1.157305
1.128421
1.116714
1.088994
1.139923
1.077643
1.142947
1.156000
1.131811
1.047600
1.073739
1.113822
1.077976
1.037356
0.973188
0.990521
1.003381
0.942968
0.865638
0.869348
0.837032
1.296362
1.206170
1.100574
1.090733
1.086094
1.119108
1.157838
1.202168
1.210613
1.223156
1.163772
1.169523
1.110664
1.159277
1.140395
1.113559
1.152976
1.171546
1.085220
1.065845
1.114088
1.110690
1.069143
1.061794
0.998504
1.009963
1.028386
0.941166
0.908050
0.892304
0.829503
0.840745
0.852732
0.868652
0.855530
0.858980
0.850244
0.838266
0.841845
0.859293
0.876318
0.912336
0.861204
1.036593
0.934572
0.757253
0.685575
0.679030
0.670821
0.657922
0.681981
0.687087
0.708365
0.714971
0.764487
0.761578
0.774529
0.792974
0.786290
0.795502
0.804784
0.831068
1.274715
1.283792
1.268132
1.315386
1.331630
1.306010
0.832336
0.874082
0.895453
0.924936
0.918082
0.965272
1.027993
1.051718
1.085559
1.028199
0.925705
0.969462
1.034821
1.044700
1.061366
1.117536
1.130268
1.156733
1.098481
1.129143
1.155466
1.195396
1.223227
1.240710
1.280126
1.046967
1.085911
1.043407
1.071704
1.149974
1.204522
1.163022
1.123322
1.034437
0.887494
0.834920
0.855365
0.858087
0.837220
0.837921
1.281742
1.282198
1.247790
1.237463
1.249545
1.222608
1.293396
1.223502
1.161971
1.137321
1.159397
1.269446
1.154535
1.203803
1.267549
1.225266
1.104016
1.063934
1.025099
0.970234
0.948798
0.965821
0.962182
0.972689
1.012116
1.072762
1.014376
1.033200
0.947907
0.927908
0.924189
0.937009
0.953233
0.956390
0.961985
1.017176
1.006316
1.095730
1.039366
1.194313
0.872633
1.151160
1.106875
1.119526
0.832163
1.370218
1.447952
1.418238
1.399864
1.358967
1.269146
1.205164
1.155372
1.104340
1.052709
1.011936
1.006334
1.042743
1.077097
1.101211
1.102990
1.115845
0.971524
1.224902
1.235435
1.222840
1.156386
1.086060
1.072023
1.097017
1.109007
1.097958
1.133471
1.133480
1.084298
1.065999
1.040057
1.050771
1.060624
1.067679
1.072588
1.103297
1.137823
1.163945
1.239230
1.303213
1.407086
1.367349
1.404762
1.387889
1.322151
1.268534
1.254724
1.233649
1.205014
1.191211
1.231969
1.232176
1.245841
1.224257
1.219319
1.194256
1.287213
1.265697
0.848353
0.837302
0.835184
0.799538
0.841072
0.839956
0.857267
0.899364
0.857668
0.871008
0.881142
0.870766
0.870132
0.882286
0.922408
1.005299
0.967635
1.026062
1.044742
1.057271
1.044070
1.058449
0.863502
0.853400
0.846348
0.827293
0.830505
0.846206
0.830174
0.882684
1.003854
0.997132
1.133432
0.951756
0.841026
0.716634
0.669391
0.655656
0.699715
0.694993
0.685582
0.688567
0.694769
0.736553
0.762504
0.822619
0.853530
0.822825
0.803496
0.808529
0.810814
0.828054
0.794100
0.852285
0.793827
0.793336
0.874208
0.880030
0.846004
0.929736
0.943226
0.948103
0.987371
1.000713
1.024666
1.016671
0.985728
0.967157
0.980489
1.007174
1.023692
1.108674
1.118597
1.103174
1.103577
1.010372
1.034994
1.078449
1.116200
1.144700
1.187219
1.177044
1.130939
1.301036
1.246692
1.253053
1.208238
1.180450
1.170554
1.207137
1.168176
1.123438
1.078018
1.066801
1.069273
1.071458
1.061788
1.109064
1.137021
1.083192
1.075010
1.073257
1.054077
1.066726
1.084793
1.137183
1.095778
1.180704
1.197712
1.176764
1.269525
1.323861
1.455220
1.342870
1.335950
1.363491
1.268027
1.256268
1.268371
1.209927
1.218567
1.231165
1.242259
1.193470
1.240043
1.188259
1.111446
1.137064
1.263985
1.184768
1.320208
1.073208
1.004247
1.044040
1.090416
1.119185
1.117342
1.090175
0.991150
0.891256
0.849262
0.861339
0.854167
0.842610
0.858393
0.859050
1.078958
1.038740
1.016892
0.980012
0.961399
0.962923
0.935238
0.945076
0.962003
0.974013
0.997710
1.013493
0.989482
0.980501
0.923285
0.974420
0.934174
0.907999
0.915811
0.928646
1.000310
1.005659
1.106766
1.036868
1.300595
0.829627
1.164521
1.081320
0.982745
0.860826
0.885355
0.957905
1.022130
1.209208
1.296746
1.371808
1.387972
1.418499
1.337371
1.301950
1.238101
1.169204
1.094469
1.049460
1.062351
1.030229
1.001344
1.012629
1.027999
1.054160
0.681606
0.705366
0.726848
0.772787
0.763338
0.817955
0.810864
0.815280
0.797779
0.806606
0.820483
0.803091
0.821783
0.816346
0.827328
0.807775
0.835676
1.182538
1.208688
1.125289
1.182891
1.156976
1.179551
1.157724
1.078514
1.065001
1.100081
1.074341
1.064546
1.074217
1.011144
0.992177
0.994301
0.903658
0.922435
0.855437
0.868569
0.880825
0.916393
0.839222
0.904639
0.906443
0.967546
0.987068
0.983236
1.020966
0.993020
0.978544
0.986530
0.975046
1.023914
1.065189
1.070003
1.084617
0.990229
1.004723
1.037107
1.049394
1.040201
1.050021
1.049113
0.929328
0.882384
0.849094
0.863085
0.836059
0.825391
0.892175
1.290054
1.228159
1.204312
1.165177
1.035639
1.032408
1.030107
1.017567
1.091508
0.811722
0.770829
0.784263
0.716808
0.703414
1.252856
1.294898
1.361941
1.348431
1.330584
1.257284
1.245532
1.176662
1.107225
1.048588
1.030521
1.024122
1.040165
1.018859
1.019966
1.008629
1.026459
1.179471
1.161875
1.158756
1.118779
1.131341
1.127618
1.127952
1.044788
1.086393
1.068643
1.074868
1.092795
1.030251
0.969056
0.939832
0.929832
0.890938
0.851587
0.860467
0.857025
0.850002
0.842117
0.819130
0.802325
0.846870
0.821264
0.934415
0.983152
1.270305
1.100834
0.977074
0.926694
0.848952
0.858204
0.851680
0.858849
0.893578
0.833900
0.852638
0.903361
0.887799
0.881634
0.883351
0.929986
0.985227
0.975696
0.975516
1.341029
1.309358
1.302759
1.306319
1.241595
1.242651
0.707811
0.717477
0.728218
0.797096
0.788895
0.773961
0.767384
0.774717
0.799660
0.800207
0.814310
0.822103
0.830042
0.818720
0.861659
0.825212
0.849638
0.867845
0.851169
0.870610
0.880158
0.882717
0.881752
0.867484
0.895479
0.871173
0.871536
0.888429
0.940051
0.998183
0.994969
0.906398
0.910708
0.916828
0.911887
0.921082
0.941807
0.961114
0.975722
0.981991
0.955842
1.195554
1.173171
1.230917
1.228306
1.130559
1.266750
1.179840
1.064126
1.226887
1.199321
1.257275
1.307741
1.036527
1.037742
1.042560
1.054028
1.070020
1.068555
1.107658
1.117907
1.163824
1.188680
1.269204
1.238049
1.305129
1.346239
0.995353
0.931855
0.866326
0.903273
0.914401
0.892791
0.896553
0.908345
0.901937
0.897255
0.987517
0.960527
1.029651
1.042536
1.062436
1.052587
0.969845
0.947108
0.927509
0.930370
0.945980
0.954732
0.964139
0.975177
1.143405
1.218824
1.119007
1.160214
1.126809
1.190798
1.090313
1.096210
1.098867
1.107080
1.058143
1.031771
0.978144
0.948189
0.974276
0.890650
0.876301
0.834631
0.844873
0.849314
0.828772
0.805769
0.790226
0.810645
0.862024
1.076968
1.162971
1.279319
1.119566
1.069566
0.970337
1.073481
1.004917
0.990581
0.797594
0.737008
0.715095
0.731939
0.750633
0.780287
0.819404
0.800779
0.764603
0.776205
0.809510
0.799498
1.027199
1.043057
1.014236
1.102316
1.255319
1.259417
1.256949
1.215566
1.189367
1.191895
1.155817
1.058131
1.032080
1.006637
1.013568
1.017733
1.006618
1.008422
1.012643
1.233103
0.902391
0.876200
0.873709
0.873771
0.883866
0.863736
0.864552
0.944012
1.040318
1.135887
1.120012
1.035382
1.110995
0.797478
1.197952
1.050792
0.893030
0.863987
0.891338
0.904172
0.889353
0.889198
0.918036
0.974728
0.946522
0.990641
0.965739
0.925831
0.946386
1.002325
1.014173
0.999208
0.975761
0.911632
0.924509
0.891104
0.896227
0.931219
0.921030
0.923704
1.291442
1.316862
1.224057
1.259126
1.236029
1.182845
1.171762
1.199929
1.220323
1.221935
1.184548
1.168062
1.203175
0.800846
0.852696
0.844462
0.854841
0.842128
0.879120
0.834140
0.855527
0.861907
0.863848
0.879005
0.885803
0.898668
0.883075
1.163128
1.137882
1.144724
1.120735
1.088603
1.085486
1.061832
1.023938
1.023355
1.017568
0.972713
0.957109
0.919331
0.856386
0.853607
0.848687
0.843064
0.812944
0.777458
0.760062
0.768982
0.822696
1.023776
1.117665
1.045514
1.104597
1.053941
1.002781
1.011460
0.950606
1.074375
0.965121
0.904839
0.779671
0.727538
0.720749
0.736722
0.750772
0.774591
0.797097
0.823543
0.771770
0.803839
0.785738
0.794789
0.992906
1.003765
0.974493
1.019790
1.016562
1.077575
1.079178
1.043496
1.142531
1.175354
1.154225
1.218796
1.310939
1.299339
1.088165
1.110129
0.867699
0.901964
0.902556
0.915760
0.879556
0.910146
0.915603
0.890157
0.999296
1.137699
1.059020
1.008255
1.008506
1.019049
0.989044
0.994166
1.025458
1.011639
1.149510
1.164884
1.142874
1.110111
1.063248
1.162534
1.128913
1.013780
1.056869
1.009326
0.963258
0.887196
0.917975
0.874364
0.849917
0.841903
0.830684
0.802073
0.760222
0.748255
0.754941
0.828715
0.958894
1.059109
1.027614
1.196789
1.204703
1.241970
0.930263
1.024168
1.176089
0.952464
0.889555
0.853430
0.734846
0.730598
0.738373
0.755659
0.765175
0.798592
0.814660
0.784232
0.797943
0.825316
0.822101
0.823380
0.831665
1.295017
1.274204
1.247320
1.206239
1.184173
1.204991
1.172024
1.176745
1.119389
1.118509
0.824833
0.751269
1.142739
0.911708
0.888494
0.861143
1.100639
1.123931
0.913640
0.880270
0.882306
0.864750
0.906430
0.877281
0.915698
0.928368
0.917837
0.922000
0.945038
0.931398
0.923320
0.935894
0.963743
0.965878
0.967246
0.927005
0.896445
0.830662
0.896648
0.888853
0.872905
0.919758
0.922732
1.029840
0.985564
1.013350
0.984984
1.050975
1.053556
1.017190
1.056550
1.183317
1.098518
1.123574
1.197243
1.262391
1.255080
0.874817
0.809440
0.846807
0.859821
0.835783
0.839568
0.905328
0.889778
0.883485
0.878567
0.868594
0.878188
0.861756
0.851132
0.867624
1.122295
1.168930
1.189621
1.157582
1.069104
1.030632
0.867424
1.158221
1.016886
0.965961
0.947356
0.951351
0.831743
0.858514
0.944770
1.014453
1.072789
1.094313
1.082023
1.058773
1.217302
1.144740
1.193994
1.185455
1.141137
1.113058
1.061664
1.052302
0.987934
0.988744
0.905647
0.911194
0.887968
0.855094
0.848338
0.825859
0.796259
0.752036
0.741665
0.760652
0.816826
0.956181
1.037543
1.078979
1.190913
1.291418
1.296675
0.935252
0.927156
0.888849
0.908271
0.926732
0.895345
0.873555
0.881649
0.860000
0.856828
0.857880
0.912110
0.898379
0.857084
0.835129
0.792999
0.797445
0.800740
0.797278
0.836423
0.858485
1.029841
0.853306
0.854034
0.885685
0.883897
0.862695
0.853495
0.876543
0.858847
0.854711
0.900711
0.903183
0.906754
0.896212
0.903678
0.915336
0.916887
0.868155
0.894295
0.855734
0.898901
0.871897
0.868729
0.889169
0.869838
0.866467
0.903235
0.903250
0.858983
0.854641
0.857055
1.020597
0.984646
0.963403
1.024129
1.022555
1.035707
1.021542
1.036224
1.052477
1.121411
1.142015
1.205803
1.218050
0.870433
0.869085
0.869656
0.902502
0.795449
0.870670
0.868039
0.869598
1.222079
1.203631
1.172206
1.160445
1.150793
0.885853
1.185136
1.168683
1.114971
1.083240
1.023931
1.022214
0.981100
0.972451
0.940965
0.924672
0.894562
0.886839
0.857198
0.835474
0.796556
0.760041
0.756435
0.763963
0.845619
0.924307
1.021011
1.094004
1.123596
1.224056
1.054222
1.137469
1.061879
1.100273
0.910625
1.039914
0.764587
0.742007
0.752014
0.767680
0.777880
0.788118
0.791711
0.825468
0.829027
0.826943
0.830367
0.904681
0.884172
0.879234
0.808554
0.836029
0.889263
0.947464
0.981760
0.994458
1.008899
1.072111
0.892737
0.828267
0.841631
0.810149
0.812662
0.840658
0.888225
0.927126
0.943222
0.976568
1.015162
0.975196
1.002123
0.875143
0.866337
0.843253
0.826201
0.784461
0.772891
0.755872
0.880189
0.851266
0.846226
0.902541
0.866723
0.998598
0.949894
1.060010
1.036335
1.038515
1.051923
1.052863
1.120554
1.125354
1.231141
1.235059
1.162733
1.208631
1.159499
1.241525
0.789470
0.778259
0.851974
0.850564
0.831594
0.814020
0.787823
0.763901
0.772290
0.810682
0.784482
0.818068
0.845098
0.885743
0.898239
0.931354
0.957742
0.969650
0.961843
0.959865
0.959889
0.959145
1.035502
0.989018
1.018445
0.964164
1.032258
1.041259
1.064047
1.133407
1.020115
1.007890
1.195276
1.158339
0.938221
0.921452
0.916863
0.877386
0.858799
0.809223
0.953470
0.909100
0.950209
0.918735
0.917860
0.822998
0.978681
0.918243
0.937004
0.974842
0.955331
0.882500
1.113121
1.127418
0.801152
0.854874
0.733203
1.320922
1.146105
1.559254
1.524998
1.480276
1.594962
0.920062
0.917236
0.861848
1.513878
1.510233
1.528142
1.324085
1.500620
1.361586
1.437872
1.024750
1.103347
1.005663
1.137751
0.851353
0.871694
1.123030
1.081224
1.033795
0.866866
0.905923
0.934262
0.862076
0.874175
1.293395
1.290053
1.328785
1.283730
1.248937
1.245817
1.265253
1.259806
1.253669
1.365291
1.415275
1.482538
1.236227
1.151599
1.043610
1.023691
1.038116
1.052624
0.955434
0.926817
0.972232
0.856764
0.839238
0.834202
1.264841
1.215272
0.881663
0.932549
0.905163
0.808955
0.809091
0.760265
0.863834
0.886379
0.889855
0.881497
1.045758
1.046666
1.087480
0.843189
0.834481
0.826787
1.024057
0.989811
0.991157
1.064998
1.050880
1.043290
1.225078
1.196269
1.190426
1.283827
1.231990
1.091864
1.616224
1.545891
1.546526
1.114468
1.216593
0.970397
1.039005
0.992967
0.992853
1.022383
1.042565
1.289816
1.329591
1.365212
1.305007
0.950076
1.246558
0.966475
1.026526
1.005865
1.039714
1.024976
0.945779
0.939849
1.064123
1.122718
1.175888
1.201730
1.011103
0.851291
0.828815
1.060678
0.902195
0.988432
0.963474
0.966301
0.965698
0.970222
1.029586
1.079353
1.045742
1.024880
1.243809
0.955495
1.047518
1.096207
1.123642
1.101422
0.964953
1.161441
1.344150
1.266373
1.273692
1.264020
1.257457
1.099127
0.940220
0.855755
0.935236
1.031308
1.108309
1.134183
1.194396
1.146253
1.135529
1.106438
1.019065
0.994918
1.071095
1.096448
0.948776
0.908806
1.093089
1.049728
1.015054
0.970803
0.933647
0.921682
0.921471
0.900223
0.904435
0.907202
0.914619
0.909328
0.899574
0.919789
0.944173
0.998383
1.127814
1.197094
1.133135
1.227062
1.266363
1.295487
1.265422
1.025724
0.995881
0.900256
0.917665
0.854695
0.834445
0.825685
0.822350
0.815598
0.814061
0.824248
0.818708
0.825806
0.843470
0.839927
0.865064
0.899317
0.907533
0.904820
0.908590
0.947218
0.874680
0.874749
0.788451
0.762042
0.739599
0.723522
0.780443
0.957421
0.964237
0.903809
0.938575
0.992494
1.035902
1.048184
1.097186
1.086423
1.072191
1.021419
1.080149
1.003264
1.103158
0.989259
0.995050
1.015522
0.988338
0.996856
0.994913
1.035568
1.054983
1.051334
1.084425
1.092081
1.078223
1.119946
1.093818
1.140970
1.095665
1.160351
1.118536
1.180937
1.181260
1.151033
1.163176
1.085034
1.095895
1.140411
1.118032
1.205488
1.211787
1.151726
1.120640
1.187558
1.172819
1.129498
1.170003
1.067857
1.126913
1.101865
1.103059
1.070325
1.060066
0.932492
0.909832
1.132146
1.169705
1.085393
1.282043
1.167318
0.904515
0.998416
0.941644
0.874838
1.006394
0.862856
0.960069
1.165922
0.859996
1.096732
0.870974
0.777947
0.756981
0.927667
0.835913
1.187888
1.316845
1.040493
0.937883
1.050190
0.860192
0.935746
0.868057
0.909458
0.872576
1.151872
1.246159
1.055791
1.143284
1.361966
1.268220
1.379435
1.374959
1.177863
1.132227
1.129385
1.011786
0.917926
1.159312
1.191347
1.278719
1.158482
1.087428
1.071716
0.999608
0.853647
0.794023
0.887226
1.080681
0.864329
0.879917
1.065371
0.904906
0.898527
0.900600
1.108100
1.167469
1.197656
1.150352
1.246881
1.164904
1.146786
1.256653
1.051634
1.133104
1.222361
1.190566
1.171836
1.193937
1.281915
1.239361
1.010501
1.046087
0.992899
1.065880
1.116041
1.123718
1.202453
1.217906
1.195951
1.127782
0.959261
0.999908
1.017802
1.052670
0.882792
0.855328
0.913492
0.853919
0.877321
0.983857
1.187322
1.240492
1.063706
0.864151
0.827626
0.846866
0.781856
0.772357
0.731964
0.784804
0.874738
0.849642
0.785834
0.949197
0.943982
0.841350
0.917302
0.954058
0.991105
0.977921
1.001538
1.027224
1.051709
1.031063
1.034622
0.980014
1.004690
0.974720
0.970034
0.919823
0.950618
0.945256
0.953759
0.967272
1.012345
1.051952
1.072973
1.045857
1.080627
1.074987
1.100588
1.085397
1.126250
1.131290
1.135765
1.163781
1.122759
1.120645
1.104225
1.082741
1.133400
1.103634
1.161473
1.155493
1.111513
1.148703
1.098538
1.108415
1.085656
1.071618
1.045583
1.055723
1.048130
1.047229
1.031569
0.969750
0.918964
1.307256
0.983037
1.004101
1.055883
1.000826
1.048598
1.075368
1.157913
1.120966
1.132129
0.898272
0.821398
0.895127
0.926175
0.877201
1.186162
1.303682
1.412158
1.148471
1.074239
1.099884
0.888065
0.828130
0.911091
0.807596
0.964788
1.055457
0.950930
1.123710
1.123358
1.026352
0.902473
1.016780
0.983472
1.133451
1.145073
1.247091
1.214206
1.213404
1.062465
0.976938
0.850770
0.858452
0.972361
1.067057
1.240576
1.378388
1.352529
1.296683
1.026764
0.996351
0.868574
0.886875
0.812165
0.828269
0.799080
0.824050
0.905874
0.840592
0.830421
1.119631
1.101571
1.057093
0.954982
0.901399
0.896321
0.887206
0.861246
0.817639
0.799128
0.797003
0.801651
0.802632
0.831401
0.990571
0.971844
0.944571
0.935212
0.912195
0.925788
0.940864
0.961846
0.960798
0.948473
0.990388
1.027363
1.055138
1.120264
1.115406
1.219921
1.266577
1.035115
1.103337
1.107773
1.028354
0.989742
0.887680
0.835726
0.738920
0.815490
0.827542
0.884145
1.186299
1.184811
1.185046
1.210544
1.297638
1.183277
1.080372
1.225183
1.302161
1.385532
1.176655
1.317091
1.297845
1.277962
1.270782
1.216991
1.223026
1.229104
1.045337
1.022386
0.908526
1.004183
1.187732
1.241656
1.277071
1.251817
1.135537
0.974047
0.982113
0.952517
0.968701
0.837369
0.848461
0.853430
0.876867
0.935328
0.975936
1.000347
1.147014
1.179777
1.289261
1.001236
0.988042
0.966897
0.957012
0.982291
0.989479
0.995840
1.033542
1.012208
1.045411
1.021871
1.084679
1.128178
1.172978
1.219070
1.115933
1.250122
1.331973
1.355200
1.383561
1.127184
1.220750
1.112236
1.196817
1.136559
1.112170
1.099918
1.071891
0.767291
0.735361
0.718428
0.745927
0.751424
0.756795
0.819121
0.930387
0.950878
0.779457
0.801455
0.885039
0.937094
0.962261
0.940980
1.018506
1.037037
1.044811
1.000179
0.968008
0.961945
0.960213
0.945011
0.919631
0.930995
0.921533
0.889567
0.873351
0.898157
0.928740
0.964754
0.962849
0.971161
1.006484
1.033287
1.024268
1.046229
1.059577
1.071227
1.083060
1.091935
1.095245
1.088322
1.130232
1.134144
1.135734
1.128448
1.076649
1.101450
1.061638
1.134566
1.157624
1.126776
1.112780
1.110604
1.101364
1.054751
1.033718
1.016523
1.031299
1.011958
1.043893
1.018807
1.086532
1.184535
1.228514
1.142144
1.191451
1.210533
1.102703
0.923871
0.873482
1.018616
1.148518
1.326581
1.361850
1.350282
1.038297
0.955729
0.873279
0.841839
0.817652
0.826602
0.933079
0.876178
0.916279
1.042308
0.958110
1.005481
0.798810
1.145665
1.015732
0.911113
0.903614
0.874372
0.869867
0.798657
0.774212
0.783810
0.755421
0.768873
1.242434
1.293764
0.791274
0.989146
0.891613
0.831738
1.268618
1.300249
1.184881
1.149018
1.133171
1.209220
1.313696
1.340536
1.292148
1.226561
1.202043
1.289629
1.319916
1.364507
0.876812
1.211400
1.396127
1.332042
1.318752
1.220160
1.172635
1.126813
1.220823
1.265217
1.309465
1.296638
1.277942
1.166912
1.237985
1.391746
1.335884
1.343465
1.290119
1.280383
1.252195
1.202973
1.147188
1.175102
1.031285
0.959090
1.069224
1.183134
1.233412
1.266004
1.250768
1.195107
0.962079
0.897083
0.894747
0.913370
0.890629
0.895169
0.936502
0.945466
0.876838
0.900069
0.964848
1.006767
1.003005
1.023978
0.760060
0.734838
0.734868
0.752239
0.869458
0.801811
0.911264
1.053791
0.720367
0.763958
0.834147
0.854508
0.935530
0.997985
1.054502
0.994719
0.968110
0.947977
0.955934
0.947656
0.927775
0.895896
0.889580
0.917689
0.867978
0.867863
0.864269
0.884947
0.915153
0.922029
0.907146
0.943552
0.943748
0.960352
0.976339
1.001751
1.023235
1.037768
1.053820
1.070024
1.089297
1.087756
1.087300
1.095462
1.065408
1.093663
1.131703
1.097794
1.105196
1.027961
1.045666
1.176331
1.168215
1.079575
1.104864
1.106942
1.032955
0.981875
0.992982
0.992862
1.040016
1.061407
1.030026
1.010822
1.022627
0.944381
0.958823
0.973253
1.029314
1.042311
1.139933
1.088351
1.103267
1.143163
1.162977
1.160991
1.210751
1.168202
1.182502
1.252507
1.329458
1.334739
1.375628
1.347462
1.166902
1.121452
1.098730
1.184663
1.179061
1.106065
1.012734
1.095418
1.119544
1.156507
1.242477
1.246772
1.189783
1.021683
0.908973
0.929717
1.129333
1.288338
1.348309
1.327782
1.296889
1.297696
1.240705
1.202971
1.014742
0.962125
0.917028
0.839829
0.814878
0.829232
0.902559
1.018698
0.949980
1.092329
1.010524
0.828606
0.892789
0.791296
1.250517
0.957184
0.823364
0.882875
0.843402
0.774469
0.751916
0.749274
0.889136
0.868602
0.758494
0.729419
0.851189
0.799748
1.161288
0.860835
0.734452
0.761769
0.818170
0.816869
0.811556
0.816416
0.853831
0.892363
0.914822
0.998658
1.061510
0.947632
0.931250
0.978155
0.983153
0.930899
0.946070
0.915587
0.856262
0.852963
0.853777
0.847040
0.878973
0.857452
0.861278
0.901972
0.946631
1.069108
1.075443
1.142067
1.077942
0.985396
0.980312
1.074188
0.872260
0.819120
0.834412
0.886107
0.921801
0.942563
0.941728
0.908653
0.908205
0.933344
0.973672
0.990544
0.955362
1.023582
1.008491
1.077821
1.021815
1.052368
1.056174
1.072301
1.011553
1.117007
1.128424
1.218595
1.244247
1.291839
1.294230
1.311546
1.312179
1.343042
1.274158
1.125819
1.057297
1.060155
1.073651
1.042065
1.055978
0.971994
0.965215
0.993729
1.020017
1.072088
1.213042
1.344025
1.382438
1.332172
1.268686
1.245904
1.198788
1.187636
1.210897
1.241625
1.278109
1.251095
1.237272
1.310813
1.367013
1.360092
1.340782
1.307316
1.291435
1.269428
1.231001
1.185009
1.173096
1.074002
0.929538
0.954789
0.993834
0.997278
0.984695
1.030063
1.014411
1.045428
1.077507
1.081982
1.086516
1.095565
1.075378
1.105309
1.124836
1.172123
1.098174
0.994378
1.008191
1.100980
1.138226
1.124107
1.082277
1.094344
1.067017
0.970509
1.213020
1.219843
1.290868
1.333207
1.393609
1.161852
0.906346
1.027927
0.896971
0.926711
0.919548
0.948768
0.958154
0.962280
0.961181
0.943874
0.926453
0.960935
0.983528
0.987926
1.043548
1.061110
1.006140
1.020566
1.015557
1.090518
0.969180
1.030272
1.143537
1.155824
1.228412
1.279788
1.292882
1.282073
1.328555
1.261835
1.325917
1.232332
1.127649
1.049351
1.014093
1.017446
1.037536
1.156067
1.180530
1.144642
1.079879
0.989105
0.969870
1.086139
1.284259
1.332701
1.352886
1.321647
1.313534
1.231591
1.260851
1.169745
0.941124
1.022714
0.944289
1.149641
1.036468
0.999814
0.926182
0.881080
1.043521
1.014371
1.163309
0.927788
0.811758
0.830098
0.831567
0.798097
0.829940
0.863759
0.906725
0.970201
0.994098
1.029672
0.951137
0.966943
0.997372
0.986851
0.976003
0.920206
0.921877
0.872359
0.863970
0.838309
0.825867
0.841002
0.861724
0.884605
0.876996
0.885073
1.287248
1.335232
1.233124
1.193374
1.179599
1.164872
1.080816
1.023486
1.120488
1.092936
0.981357
0.879626
0.839799
0.823432
0.904686
0.938528
0.958417
0.987009
0.986705
0.908329
0.927210
0.969259
0.963110
1.018192
1.017993
1.022918
1.067920
1.084896
1.074323
1.088448
1.066572
1.086841
1.079669
1.106514
1.111899
1.134315
1.107151
1.141892
1.137332
1.040757
1.026642
1.104825
1.178590
1.128148
1.093703
1.097882
1.208230
1.257626
1.311505
1.351739
1.358043
1.413944
1.191841
1.153910
0.894796
0.846350
0.892766
0.899704
0.957352
0.956745
0.972889
0.993109
0.958670
0.964017
0.945184
0.967300
0.991988
1.299075
1.295027
1.257856
1.245941
1.127419
1.149744
1.106179
1.049268
0.987131
0.997316
0.927616
0.880645
0.847603
0.863301
0.914438
0.937079
0.933296
0.937031
0.930338
1.046281
1.077074
1.136895
1.025984
1.349556
1.321949
1.305852
1.260884
1.266263
1.246686
1.207712
1.218392
1.241846
1.284611
1.301225
1.274394
1.278101
1.360442
1.350924
1.345691
1.330682
1.310304
1.303976
1.295660
1.274960
1.210913
1.226502
1.048425
1.068563
0.991445
1.065171
0.948412
1.084778
1.148025
1.234541
1.269871
1.272505
1.284624
1.302601
0.995020
0.997308
0.992261
1.017864
1.033391
0.944510
1.004841
1.028929
0.974333
1.030949
1.008130
1.020860
0.992631
0.945245
0.923239
0.893244
0.851736
0.866066
0.839209
0.812298
0.822824
0.843149
0.844270
0.864746
0.889311
0.911984
0.930383
0.968576
0.983144
1.028100
1.032381
1.038484
1.042051
0.930158
0.992933
1.036472
1.009915
1.055301
1.061368
1.002436
1.021054
0.911803
1.059226
1.086040
0.875490
0.933681
0.995606
1.023239
1.038268
1.109311
0.855098
0.877543
1.036126
1.077385
1.078480
1.103215
1.112313
1.106271
1.099725
1.125331
1.148909
1.171862
1.148653
1.088121
1.091721
1.085561
1.054933
1.063677
1.240469
1.252783
1.156886
1.075396
1.030813
1.000700
0.996328
1.056135
1.119949
1.124769
1.090659
1.028378
1.028324
1.083195
1.239573
0.874558
0.875707
0.853472
0.892684
0.927927
1.072660
1.150576
1.335270
1.328406
1.328213
1.323700
1.304038
1.294364
0.992248
1.091986
0.847690
0.853378
1.325484
1.354883
1.393440
1.397847
1.273645
1.148547
1.050984
0.896656
0.851404
0.866108
0.879213
0.925628
0.954273
0.953830
0.972398
1.002221
0.980199
0.974412
0.955893
0.988239
1.012242
0.983760
1.028958
1.047855
1.077038
1.113571
1.111566
1.077800
1.136670
1.188284
1.292266
1.314489
1.265850
1.260717
1.170279
1.184943
1.194983
1.220464
1.257527
1.259825
1.084232
1.082824
0.898479
0.817802
0.797330
0.814554
0.807220
0.849589
0.827543
0.837547
0.880853
0.902194
0.925454
0.938151
0.970184
0.983513
1.016949
1.039688
1.028823
1.019606
1.048961
1.035200
0.850547
0.868357
0.809407
0.815547
0.837239
0.827042
0.854757
0.840806
0.842968
0.851460
0.882197
0.908731
0.881532
0.959965
0.994362
0.933683
0.961804
1.025707
1.013256
1.024685
1.037723
1.040240
1.041813
1.058231
1.034717
1.059141
1.044840
1.131438
1.093729
1.118246
1.140889
1.180088
1.187616
1.227239
1.198003
1.155474
1.105796
1.253572
1.238825
1.224197
1.210239
1.167748
1.138922
1.161419
1.180395
1.199960
1.242351
1.302170
1.309922
1.290122
1.318201
1.141261
1.174556
1.169575
1.213894
1.156384
1.135584
1.085942
1.118620
1.155285
1.156513
1.213598
1.257532
1.279446
1.284370
1.284182
1.307171
1.353499
1.357602
1.284627
1.205664
1.126790
1.070050
1.035108
1.006188
0.994158
1.005154
1.345617
1.370791
1.390948
1.381401
1.284681
1.154030
1.099447
0.949273
0.868349
0.867387
0.890870
0.899518
0.902020
0.933194
0.948933
0.958243
0.966919
1.004020
1.001748
0.996587
1.018722
1.039036
0.874310
1.103664
1.071608
1.040478
1.064355
1.049421
1.173365
1.233240
1.218480
1.176460
1.354357
1.354381
1.351225
1.018607
1.084562
1.124302
1.199705
0.973523
0.938406
0.992816
1.000136
1.029080
1.000788
1.042487
1.027567
1.035047
1.033847
1.029815
1.043546
1.030670
1.049212
1.178076
1.137577
1.179884
1.190525
1.172482
1.233196
1.188500
1.187075
1.216272
1.153140
1.088484
1.048590
1.030888
1.036934
1.024416
1.015335
1.016733
1.030085
1.048577
1.061377
1.088662
1.114512
1.371461
1.382578
1.354626
1.292674
1.179965
1.103880
0.949330
0.888989
0.886285
0.874807
0.890945
0.915018
0.921676
0.935447
0.906945
0.952546
0.949397
0.954211
0.987890
1.000122
1.004963
1.043122
1.080106
1.048513
0.990949
0.951134
0.890126
1.073345
1.131432
1.133917
1.164332
1.171360
1.236869
1.210058
1.153711
1.323915
1.376146
1.060928
1.059316
1.068479
1.071407
1.113735
1.165433
1.161132
1.143740
1.114037
1.154042
1.374861
1.118742
1.136380
1.222716
1.212980
1.222489
1.179947
1.175786
1.233255
1.178512
1.189279
1.131025
1.085480
1.052706
1.022575
1.004661
0.999794
1.042919
1.040410
0.993758
1.138211
1.060955
1.084289
0.932465
0.885971
0.862298
0.866337
0.830437
0.847649
0.861414
0.863671
0.852365
0.873717
0.850218
0.862860
0.899521
0.906781
1.033552
1.013513
1.036621
1.023496
1.034536
1.034690
1.102050
1.109648
1.113371
1.203147
1.363337
1.326786
1.277002
1.178485
1.073486
0.971214
0.933643
0.925286
0.917961
0.917901
0.932637
0.931724
0.912303
0.909995
0.919384
0.899339
0.904302
0.976086
0.993152
1.016076
1.057816
1.066376
1.081323
1.108920
1.154516
1.061928
1.039687
1.008221
1.030073
1.070374
1.111498
1.058490
1.318757
1.232046
1.228391
1.205927
1.219349
1.186104
1.184412
1.031410
0.999270
0.980845
1.038208
1.016649
0.999534
0.920352
0.885390
0.960831
0.884980
0.885578
0.887199
0.881113
0.937696
0.885889
0.863358
0.860043
0.856047
0.878879
0.906460
0.913039
0.951355
1.000822
1.004725
1.030859
1.008737
1.022491
1.045256
1.019387
0.941133
0.915640
1.038039
1.025379
1.042494
1.035529
1.067493
1.107787
1.139673
1.246918
1.140449
1.156477
1.108112
1.068206
1.029343
1.037581
1.086565
1.110836
1.158681
1.197943
1.245625
1.289751
1.236446
1.169652
0.943603
0.935085
0.938176
0.939506
0.922108
0.982777
0.976604
1.029426
0.993518
1.042355
0.963070
1.068197
1.097483
1.104759
1.103741
1.111123
1.016800
0.992905
0.954022
1.003452
1.030805
1.077976
1.102976
1.141379
1.188799
1.245744
1.262054
1.030557
1.062415
1.065605
1.091009
1.079821
1.084225
1.057602
1.036427
0.967816
0.924675
0.946815
0.961749
0.991060
0.996083
1.035691
1.057075
1.108242
1.175823
1.024706
0.972132
0.944893
1.214002
0.951792
0.929764
0.918603
0.942228
0.927666
0.870875
0.900614
0.873764
0.961972
0.952026
0.914475
0.875991
0.958137
0.945401
1.036000
0.925697
0.868685
0.907443
0.897304
0.880652
0.897908
0.906092
0.913647
0.973694
0.995693
1.031531
1.021592
1.069546
1.027338
1.046598
1.060064
1.067467
1.104188
1.072302
1.015639
1.029283
0.987003
0.968107
0.975624
0.903370
0.928929
0.916719
0.897289
0.913491
0.927931
0.985029
0.985588
1.033680
1.012917
1.022598
0.963698
0.951907
1.303334
1.337733
1.290570
1.293421
1.277444
1.314012
1.239693
1.221081
1.256895
1.232720
1.052726
1.209761
0.970770
0.869265
0.870468
1.009684
0.923547
1.228525
1.227222
1.276979
0.894437
0.900204
0.862372
1.066991
0.899645
0.861796
1.284192
1.274116
1.273464
1.280153
1.023272
1.007984
1.069951
1.011859
1.021866
1.043810
1.040281
1.057659
1.083730
1.066265
1.062428
1.021376
1.119156
1.136350
1.193436
1.125346
1.132876
1.181296
1.063632
1.040451
1.036538
0.985492
1.104397
1.075350
1.065760
1.225148
1.028671
0.914105
0.995584
1.129393
1.008390
0.965053
0.948702
0.870926
0.806048
0.882617
0.854366
1.162310
1.189616
1.104386
1.067508
1.043891
0.858841
1.071423
0.991383
0.861361
1.026935
0.857485
0.918819
0.942471
0.869807
0.883711
0.815479
0.835636
0.760878
0.843016
1.206557
1.349571
0.798122
0.934230
0.950186
0.935835
1.074390
1.051415
1.008941
0.985903
0.956035
0.922384
0.925304
0.909385
0.920034
0.864796
0.880928
0.902823
0.928535
0.891990
0.917833
0.951678
1.025897
1.203916
1.038490
0.940780
1.211243
1.301050
1.103320
0.783020
0.783244
0.745286
0.781065
1.001390
0.978366
0.986260
1.010409
0.951485
0.811370
0.770215
0.761713
0.971430
0.932149
0.873002
1.023153
1.160766
1.060975
1.187798
1.042340
1.054076
1.261465
1.276279
1.212424
1.231362
1.070323
1.027806
1.056794
0.948241
1.053098
1.024912
0.837296
0.807627
0.793719
0.739352
0.855691
0.800976
0.791340
0.848541
0.998242
0.885175
0.875413
0.952625
1.035757
1.183011
1.273269
1.326467
1.392586
1.047663
1.109759
1.040423
1.094298
1.046626
1.110480
1.034588
1.086689
0.993619
1.119353
1.048100
1.051996
1.043875
0.999381
1.113363
0.997653
1.051957
1.066699
1.070294
1.025327
1.103790
1.091845
1.147612
1.090644
1.144861
1.081539
1.129901
1.056709
1.122433
1.014441
1.123401
0.951555
1.068241
1.029758
1.088567
0.975048
1.141973
0.912213
1.115912
1.062774
1.088834
1.056860
1.121444
1.102532
1.112043
1.105887
1.131404
1.368784
1.351478
1.269274
1.243300
1.187792
1.299561
1.226528
1.097715
1.012389
0.901819
0.888689
0.919202
0.916515
0.950401
1.364741
1.078003
1.111698
0.997197
0.921247
0.881874
0.886176
0.806622
1.118855
1.036426
1.011134
0.996803
0.857096
0.795862
0.838895
0.741414
0.923526
0.872346
0.814858
0.824023
0.879890
0.752228
0.822326
0.742562
0.799574
1.139058
1.057995
0.976153
1.089132
0.769111
0.926466
1.191843
0.827109
0.746757
0.729630
0.948647
1.213490
1.110452
1.066392
0.837295
0.694787
0.838150
0.794280
0.743363
0.844027
0.786352
0.847964
1.127420
1.151337
1.210616
1.346102
1.201212
1.281468
1.268570
1.203581
1.078061
0.883653
0.954222
1.054083
0.924456
0.799579
0.865519
0.832568
0.767475
0.828324
0.760907
0.787876
0.794917
0.835918
0.768184
0.812995
0.820875
0.948988
1.069455
1.200820
1.282314
0.750566
0.774199
1.379682
1.308198
1.304742
1.091989
0.972325
0.978622
1.012515
1.006697
1.006326
1.008750
0.985946
1.031888
0.991496
1.009734
1.006576
0.976734
1.007245
0.984645
0.970828
0.962934
0.993003
1.035075
1.028055
1.020192
1.060812
1.067155
1.070787
1.057876
1.061779
1.040205
1.037128
1.039869
1.017904
1.048036
1.014727
0.928091
1.059488
0.986771
1.005346
1.036628
0.982719
1.050667
1.047464
1.006066
1.002598
0.963816
0.914592
1.001672
0.996609
1.014379
1.017069
0.954544
0.926747
0.916389
0.899050
0.914507
0.929188
0.887284
0.893883
0.899808
0.912882
0.938677
0.956416
0.973616
1.093845
0.924187
0.849790
0.847928
1.229015
1.210482
1.206856
1.165745
1.188091
1.208675
1.099268
1.035351
0.983411
0.955852
0.947098
0.942437
0.985898
0.884636
1.022211
1.236680
0.880067
0.723012
0.750649
0.800165
1.070877
1.238098
1.188556
1.268261
1.177729
1.169268
0.942692
0.900744
1.147188
0.810553
0.875671
1.187466
1.217909
1.399331
1.149755
0.812762
0.755258
0.769250
0.860241
1.109179
0.943811
0.879587
0.892467
1.121091
1.031034
0.843410
0.732730
0.759519
0.739649
0.769418
0.911375
1.218258
1.256761
1.279662
1.287823
1.237997
1.166929
0.969525
1.002829
0.956853
0.882437
0.910265
0.918076
0.922275
0.840802
0.883708
0.887622
0.757850
0.859246
0.800521
0.883873
0.853767
0.882183
0.937172
1.050066
1.158268
1.181613
1.170550
1.194476
1.142105
1.138360
1.165370
1.118793
1.113681
1.048249
1.025307
0.933038
1.209637
1.141066
1.131042
0.948930
0.956598
0.929990
0.922287
0.887918
1.129262
1.096395
0.986092
0.937934
0.904875
0.978801
0.950943
0.917678
0.880113
0.902182
0.883841
0.920604
0.932281
1.004122
1.027903
1.016793
0.997000
1.151258
0.994886
0.961691
0.873194
0.899720
1.206354
0.999795
0.979744
0.961657
0.943919
0.946256
0.944197
0.916645
0.901069
0.934392
0.943918
0.931754
0.956288
0.916220
0.974703
0.985678
1.028636
0.996522
1.044889
1.029388
1.034169
1.032464
1.024135
1.026072
0.998451
1.000283
1.002152
1.008750
1.010397
0.978777
0.991431
0.990152
0.960290
0.929908
0.956986
0.949927
0.999181
0.975889
0.939788
0.981719
0.988591
0.949239
0.986804
1.157796
1.307754
1.029756
0.917449
0.841900
0.966954
1.094529
1.083633
1.089668
1.194479
1.199765
1.238242
1.097269
0.968023
0.997841
1.148753
0.945894
0.894017
1.066180
0.878038
1.182502
1.404129
1.256212
1.089874
0.807746
0.780726
0.816894
0.902402
0.997481
1.089475
1.155575
1.261999
1.377628
1.238731
0.959193
0.865277
0.761879
0.740579
0.721780
0.814972
0.884316
0.877320
1.153042
1.273696
1.305487
1.305708
1.208069
1.209483
1.044239
1.002801
0.956043
1.002374
0.945760
0.962621
0.953170
1.020276
1.171572
1.190611
1.086058
0.978359
0.845312
0.873793
0.941993
1.000218
1.097814
1.113507
1.120299
1.094366
1.082892
1.035740
1.066092
1.056141
1.037749
1.032461
1.033144
0.880421
0.867847
0.940474
0.928021
0.903828
0.909010
0.910829
0.955362
1.019737
0.960570
1.070739
0.998817
1.081150
1.099664
0.975873
0.923305
0.947040
1.013378
1.179222
1.087437
1.048361
0.942393
0.943726
1.040224
1.265916
1.120040
1.073501
1.133350
0.927303
0.944975
0.985283
0.962668
0.919838
0.937915
0.922591
0.906333
0.884092
0.911677
0.937215
0.926189
0.922440
0.951999
0.939115
0.988177
1.019378
0.997040
1.029916
1.006944
1.011164
1.013368
1.007462
1.003543
0.985700
0.957123
0.996576
1.007509
1.004252
0.967014
0.947602
0.932426
1.003337
0.911045
0.937517
0.924255
0.975362
0.969806
0.950671
0.959718
0.983258
0.952300
1.196977
1.128652
0.912297
0.964925
0.958429
0.981920
0.990042
1.053918
1.176754
1.177878
1.135450
1.065767
1.010528
0.984459
1.070394
1.043661
0.985422
1.019347
1.015622
0.885828
1.225431
1.119754
1.335686
1.173788
1.037481
0.827669
0.801813
1.052950
0.998088
1.116354
0.991126
0.931115
1.025733
0.890363
1.199937
1.181620
1.310335
1.278072
1.076103
1.085556
0.959568
0.859330
0.876237
0.913977
0.975003
1.032527
1.139314
1.232473
1.315033
1.360819
1.332053
1.272227
0.970220
0.826297
0.758127
0.786801
0.921862
0.998725
1.020691
1.169647
1.269981
1.309411
1.164114
1.194575
1.070680
1.004775
0.944406
0.974981
0.953483
0.935841
0.940369
1.005893
1.094160
1.148696
1.138015
1.091606
1.015134
0.931208
0.850905
0.859007
0.832556
0.849177
0.910545
0.951985
0.963024
1.023322
1.005052
1.011848
0.975974
0.991579
0.997030
1.005463
1.012151
1.006798
0.917147
0.947067
0.947359
0.963847
0.972957
1.027060
1.050527
1.006571
1.076894
1.030451
1.051985
0.959136
0.934049
0.954532
1.016084
1.034986
1.023534
1.030180
0.935615
0.935276
0.921005
0.933419
0.967920
0.998306
0.994731
1.036884
1.077740
0.954304
0.934795
0.893418
0.886614
0.884655
0.881446
0.858288
0.883215
0.928878
0.903006
0.943039
0.905842
0.977950
0.982626
0.984657
1.027603
1.023923
1.015935
1.002561
1.020611
1.029953
1.024447
0.987981
0.964194
0.967590
1.004182
1.004980
0.999968
0.958607
0.945058
0.907119
0.911889
0.919102
0.915559
0.930534
0.907403
0.928040
0.928668
0.952439
0.997976
0.984144
0.976368
0.956513
1.162791
1.258868
1.279366
1.156031
1.116335
1.062035
0.991535
0.962713
0.939146
0.898980
0.910258
0.985794
1.011621
1.004542
1.063192
1.067031
1.070750
1.014963
0.966784
0.900946
0.870746
0.861398
0.841734
0.823819
0.835609
0.843159
0.961672
1.046130
0.977129
0.983865
1.018074
1.038865
1.037434
0.877777
1.172509
1.047547
1.098936
1.273212
1.208751
1.172819
1.114466
1.022908
0.900480
0.873354
0.936161
0.935657
1.021085
1.089422
1.145008
1.188598
1.159791
1.229080
1.290975
0.864752
0.819477
0.915978
0.946318
0.935603
0.928121
0.955141
0.911051
0.922766
0.908268
0.946872
0.956146
0.947237
0.965113
0.984839
1.003922
1.011974
0.998855
1.001355
0.964747
0.926816
0.940300
0.934777
0.946620
0.944834
0.963364
0.978533
0.926183
0.914205
0.954676
0.967169
0.926420
0.871292
0.887588
1.023734
0.896670
0.881504
0.869759
0.875660
0.873951
0.849655
0.889900
0.890931
0.889610
0.912429
0.955421
0.963590
1.017622
1.015115
1.025758
1.067755
1.042634
1.032493
1.012408
1.007449
0.996222
0.963369
1.028811
1.008508
1.005582
1.005300
0.953239
0.951703
0.916627
0.891728
0.874562
0.940592
0.934194
0.882346
0.919245
0.961783
0.949485
1.023249
1.084354
0.947446
0.929892
0.925509
0.968996
0.971057
0.997019
0.965100
0.983579
0.975864
0.959505
0.950431
0.936247
0.941329
0.939560
0.956467
0.942552
0.963499
0.932285
1.179050
1.126074
1.083342
0.910448
0.908330
0.907304
0.931349
1.002236
1.017031
1.038092
1.033228
0.985854
0.949296
0.910509
0.876596
0.861636
0.847804
0.839738
0.848161
0.852648
0.855554
0.829442
0.948909
0.962306
0.939380
0.953081
0.948211
1.008695
0.957290
0.984046
0.902163
0.842717
0.820964
0.829970
0.850985
0.899199
0.921676
1.031124
1.073314
1.080367
0.943228
0.955041
1.075791
1.110245
1.167482
1.166874
1.096885
1.032898
0.920613
0.919944
0.883528
0.944166
0.955200
1.012628
1.092093
1.038344
1.026203
0.952792
0.909501
0.977342
1.014896
0.897132
0.842238
0.855163
0.855850
0.870192
0.851192
0.884441
0.893324
0.904882
0.909619
0.949609
0.986724
1.034684
1.015423
1.048184
1.048133
1.121617
1.027859
1.028168
1.007896
1.016945
1.084332
1.070308
0.994449
0.987446
1.011717
0.967064
0.918898
0.932165
0.877772
0.878996
0.919991
0.909429
0.887289
0.910733
0.892082
0.891348
0.893066
0.898011
0.883795
0.964559
0.981344
0.952511
0.897061
0.911947
0.914373
0.979190
1.003335
1.003417
0.998729
0.982140
0.953461
0.921232
0.896070
0.866011
0.857604
0.849790
0.845233
0.845302
0.840179
0.838311
0.861484
0.859508
0.852011
0.886100
0.884062
0.880371
0.957397
0.957337
0.847621
0.830888
0.823455
0.845639
0.872544
0.935419
0.904412
1.061034
0.985773
0.907529
0.786867
0.837510
0.999428
0.913260
1.171550
0.935397
0.831914
0.872933
0.784588
1.221385
1.045026
1.054352
1.085991
0.941702
0.932122
0.907832
0.978429
1.000268
1.015993
1.026858
0.863573
0.856877
0.812601
0.833983
0.857086
0.865802
0.872560
0.864689
0.967676
0.990870
1.036032
1.013862
1.061679
1.034171
1.153868
1.031282
1.010726
1.003697
1.039076
1.116133
1.033058
0.942475
1.027724
1.015489
1.003454
0.920894
0.901732
0.854616
0.890267
0.901955
0.909100
0.897278
0.941436
0.936152
0.938002
0.927402
0.920160
0.913348
0.895048
0.907606
0.929085
0.941369
0.937587
0.938776
0.956494
1.028219
1.013303
1.020301
0.997744
0.952336
1.016561
1.041773
0.905206
1.012242
1.003354
0.986460
0.965382
0.938673
0.910094
0.886948
0.881056
0.861241
0.847236
0.836183
0.842815
0.833930
0.829842
0.838994
0.838557
0.856494
0.850500
0.856849
0.861173
0.890894
0.929261
0.840193
0.833280
0.843874
0.851724
0.856391
0.848249
0.864559
0.929606
0.979753
1.033051
1.016309
1.012673
1.001101
1.079898
0.973837
0.993230
1.022375
1.004332
0.983057
0.954123
0.926472
1.023763
1.030543
1.003554
0.935097
0.908169
0.871574
0.854203
0.875044
0.904247
0.911657
0.896571
0.924223
0.940455
0.912331
0.939667
0.944416
0.955495
0.913575
0.928334
0.926979
1.010950
1.005596
0.976909
0.933308
0.940141
0.900220
0.869385
0.887971
0.870323
0.859120
0.831929
0.833307
0.826438
0.842031
0.862231
0.852095
0.859913
0.866015
0.910822
0.892028
0.892495
0.885416
0.893142
0.921931
0.894120
0.899090
0.904961
0.883337
0.862205
0.853455
0.836495
0.840716
0.876770
0.981789
1.017216
1.331981
0.840089
0.875192
0.939860
0.871891
0.833995
1.095740
1.375567
1.186912
1.082248
1.082973
1.027899
0.973500
0.961811
0.927996
0.948335
0.940661
0.958967
0.868617
0.841380
0.859232
0.857871
0.867990
0.872155
0.942726
0.988984
1.023196
1.038530
1.103527
1.035187
1.062772
1.019851
0.946591
0.997635
1.023340
0.883203
0.860923
1.095264
1.075263
0.983680
0.982497
0.940400
0.894680
0.881856
0.874176
0.889880
0.919479
0.936684
0.949745
1.015437
0.852919
0.841069
0.841250
0.849374
0.874000
0.892134
0.966501
0.997101
1.011197
1.072894
1.147089
1.168735
1.166133
1.037921
0.949646
0.977598
0.956703
0.930907
1.039256
1.125568
1.192646
1.014907
0.981650
0.941951
0.889594
0.882341
0.842690
0.887563
0.897236
0.899234
0.865606
0.898424
0.902946
0.887370
0.997240
0.928538
0.863111
0.860647
0.862117
0.853224
0.909869
0.999843
1.137845
1.307082
0.851618
0.926630
0.908086
0.917763
0.920448
0.911663
0.906881
0.885515
0.862326
0.856237
0.853419
0.834814
0.858115
0.891859
0.971442
1.148317
1.289361
0.944203
1.220686
1.008247
0.994858
0.955464
0.917841
0.897673
0.873547
0.860591
1.062894
0.856919
0.885132
0.942089
0.885736
1.254115
1.187241
1.253794
1.147652
1.082989
1.020117
0.962758
0.930499
0.925062
0.923360
1.246658
1.186412
1.073631
1.021188
1.002842
0.941135
0.891275
1.027360
1.002830
0.979292
0.903195
0.908039
0.870754
0.971055
1.006019
0.975048
0.859601
0.878417
0.874488
0.971467
1.070947
1.030418
0.891133
0.897102
0.900709
0.842782
0.881996
0.867304
0.894993
1.020807
1.023270
0.861667
0.999732
0.908768
0.850736
0.831084
0.899329
0.898902
0.942849
0.902143
0.968975
0.962618
1.047082
0.894785
0.915199
0.975380
0.935845
0.898658
0.930790
0.969956
0.998189
0.888501
0.885763
0.891478
0.959177
0.893731
0.956949
0.946607
SCALARS V22_SP5(MPa) float 1
LOOKUP_TABLE default
0.932120
0.981430
0.936612
0.843825
1.402185
1.131537
0.932400
1.147531
1.134259
1.122253
1.127755
1.341759
1.407149
1.300544
1.025822
1.092832
0.852961
0.797611
1.130551
0.922461
1.185155
1.140874
1.266081
1.111151
1.056568
1.094227
1.123597
1.359821
1.153391
1.345256
1.263205
1.012858
0.806090
1.002590
0.973109
1.087682
1.350989
1.428294
1.430365
1.420952
1.482693
1.471209
1.363574
1.280504
1.323924
1.487442
1.401853
1.408941
1.063327
1.299676
1.145226
0.876358
0.794402
1.286522
1.171176
0.931184
1.061473
0.895990
1.000479
0.836913
0.703076
0.904751
1.050601
0.830765
0.776470
0.738658
0.944794
0.676630
0.966812
1.149970
0.827930
0.895003
1.062829
0.749496
0.811285
0.789607
1.142236
1.138762
1.499311
1.039281
0.715297
0.895575
1.351671
1.375365
0.813565
0.773470
0.919556
0.864035
0.839489
1.032680
1.330538
1.265399
1.050863
0.782158
0.783255
1.151023
0.898219
0.961048
1.253787
1.081351
1.253860
0.800432
0.715880
1.053243
0.839384
0.816344
0.875667
1.033982
1.146400
1.219647
1.170144
1.092317
1.039164
0.898171
0.935637
0.970713
0.958745
0.914410
0.869913
0.828298
1.091834
1.275650
1.300491
1.582894
1.510075
1.413590
1.284037
1.126167
1.439519
1.343778
1.342656
0.971677
1.052293
0.983573
1.069037
1.142083
1.166595
1.105808
1.429864
1.326873
1.277457
1.074089
0.974147
1.117757
0.799294
0.811935
0.784787
0.680293
0.706829
0.985242
1.062806
1.000165
1.428787
1.515647
1.294993
0.904455
0.735997
0.816481
1.058688
1.068323
1.095959
0.676287
1.013824
1.162817
1.267719
1.373777
1.442855
1.497476
1.106862
0.861723
0.952435
0.764930
0.788546
1.110531
1.333745
1.375300
1.463659
1.485471
1.073206
1.211855
1.301618
1.120957
1.080980
0.960135
1.403428
1.538587
1.023510
0.815679
0.933562
0.919375
0.972819
1.280139
1.447310
1.358885
1.355730
1.358587
1.326159
1.273640
1.160531
1.086317
1.173115
1.398543
1.117000
0.939855
0.947918
0.980146
1.044925
1.194768
1.093772
0.992186
1.395893
1.057632
0.713563
0.757163
1.215792
1.081754
0.783893
0.979022
0.655398
1.432564
0.813823
0.797503
1.094319
1.014275
1.018195
0.880227
0.809835
0.913763
0.967834
1.149049
1.471446
1.533851
1.217933
0.740545
0.783679
1.064009
1.273684
0.935953
0.815890
0.636159
0.781209
1.050986
1.108210
1.264985
1.413283
1.186655
0.869270
0.685169
0.678338
0.803141
0.932217
0.903339
1.473944
1.150485
1.424022
1.212525
1.258085
1.298963
1.186963
1.207160
1.213216
1.160459
1.183447
1.238132
1.183644
1.134996
1.091130
0.900298
0.838885
0.836119
0.818901
0.899740
1.174158
1.435251
1.431298
1.587767
1.625437
1.546824
1.449299
1.439025
1.453388
1.450844
1.452963
1.263185
1.129034
0.870829
0.812163
0.988977
1.304310
1.233564
1.460966
1.606786
1.501277
1.423680
1.157045
1.007483
1.048027
0.947640
0.889961
0.781985
0.682774
0.649982
1.028957
1.057837
1.204405
1.512993
1.561136
1.515499
0.850915
0.862371
0.804110
0.935040
1.204489
0.665902
1.136065
1.266603
1.337442
1.409775
1.455948
1.410065
1.120248
0.878579
0.857357
0.714925
0.802024
1.199133
1.371719
1.399876
1.431548
1.469266
1.042526
1.225779
1.301676
1.262891
1.277397
1.145237
1.150828
1.286859
1.370664
1.075657
0.832886
0.871355
0.907395
1.264197
1.540160
1.307773
1.192754
1.278585
1.303588
1.137681
1.066467
1.325909
1.164707
1.036247
1.140030
1.017231
0.881569
0.637096
0.743555
1.251930
1.216623
1.153228
1.257929
1.219788
0.807233
1.225862
0.860372
0.757691
0.901947
0.819505
0.737470
0.941044
1.161117
1.337561
1.148195
0.713290
0.705285
0.976954
1.382187
1.442503
1.192299
0.881157
0.716929
1.141477
1.571233
0.844103
0.731269
0.809344
1.347118
1.419034
1.348497
1.090359
1.171727
0.811358
1.029149
1.417409
0.715994
1.016580
1.037247
1.139797
1.342371
1.100461
1.458320
1.428605
1.398758
1.370380
1.374057
1.360822
1.338609
1.226595
1.139742
1.043262
0.954672
0.835560
0.827723
0.882498
0.982986
1.102780
1.459320
1.517220
1.650296
1.584342
1.596447
1.487270
1.518496
1.494744
1.486556
1.354377
1.136852
1.045581
0.776767
0.754840
0.934679
1.396468
1.457873
1.669636
1.576509
1.533794
1.406767
1.167867
0.993714
1.014519
0.906168
1.037599
1.004982
0.854958
0.771261
1.256657
1.348609
1.392281
1.611502
1.563243
1.558690
1.413712
1.384849
0.833902
0.796770
0.848839
0.788880
0.834311
1.032925
1.075836
1.213251
1.171560
1.223508
1.235358
1.183454
1.201120
1.145322
0.986789
1.257202
1.372666
1.223998
1.237909
1.240440
0.885299
0.636761
1.013935
0.968707
0.930372
0.873753
0.887815
1.312970
1.585806
1.379557
1.167084
1.351024
1.572774
1.547852
1.541220
1.513423
1.533740
1.507205
1.501920
1.495906
1.482996
1.460580
1.480285
1.486187
1.492565
1.467215
1.499914
1.485187
1.525674
1.529429
1.620467
1.581533
1.538228
1.558045
1.567069
1.561047
1.562639
1.554850
1.576536
1.551343
1.536896
1.564028
1.547819
1.520719
1.554323
1.535205
1.521438
1.534417
1.549280
1.578087
1.439320
1.550651
1.520968
1.470281
1.574272
1.502245
1.508555
1.439582
1.451751
1.492363
1.423960
1.462453
1.550781
1.454077
1.488036
1.523626
1.476453
1.414442
1.494698
1.470695
1.523174
1.498628
1.535212
1.568059
1.581461
1.511898
1.549723
1.506006
1.530183
1.500817
1.565741
1.557553
1.546351
1.595126
1.588716
1.540633
1.575892
1.535988
1.542809
1.565841
1.556748
1.565795
1.511247
1.539670
1.534645
1.483859
1.558813
1.573804
1.562330
1.528413
1.503569
1.532514
1.536839
1.565788
1.586501
1.555704
1.580210
1.570799
1.573039
1.556652
1.566492
1.554518
1.564233
1.591529
1.557978
1.581584
1.578262
1.569983
1.580598
1.575911
1.588393
1.582696
1.605108
1.594672
1.600156
1.560772
1.608427
1.597650
1.580535
1.581721
1.577461
1.540593
1.546696
1.596724
1.532423
1.524760
1.509007
1.544515
1.510385
1.545910
1.465615
1.457572
1.502213
1.461147
1.383142
1.292727
1.313290
1.284131
1.064392
0.952576
1.146132
1.132346
1.134307
1.260917
1.306790
1.255108
1.362061
1.327151
1.302159
1.360580
1.342128
1.186105
1.155422
1.106949
1.104354
1.185227
1.102120
1.076003
1.180659
1.234276
1.215146
1.311645
1.000337
0.958771
0.724673
0.800579
1.025925
1.042808
1.147446
1.203224
1.297102
1.386515
1.163330
1.251088
1.173203
0.795068
0.792489
1.549811
1.582970
1.543994
1.543837
1.533113
1.513114
1.513699
1.499424
1.487409
1.463198
1.466105
1.472799
1.476390
1.487344
1.474444
1.519884
1.148943
1.389151
1.358543
1.346343
1.301324
1.233629
0.995872
1.573313
1.473905
1.367133
1.119319
1.253381
1.471738
0.667828
1.299490
1.591724
1.578064
1.253919
0.991649
1.572171
1.592727
1.543602
1.562297
1.558261
1.560818
1.555259
1.562637
1.571712
1.564841
1.569170
1.577525
1.551023
1.552345
1.548391
1.550266
1.570081
1.554867
1.538290
1.547478
1.523513
1.511376
1.569619
1.483039
1.547451
1.568147
1.480614
1.457550
1.423309
1.421878
1.354269
1.377248
1.449083
1.539321
1.469013
1.479700
1.522623
1.573858
1.460770
1.503702
1.553945
1.526125
1.504220
1.582185
1.567262
1.576938
1.529779
1.543892
1.591377
1.585691
1.568372
1.577801
1.599890
1.575941
1.573565
1.567437
1.597488
1.582503
1.586801
1.598881
1.599819
1.601815
1.574190
1.582103
1.592670
1.532217
1.579438
1.531428
1.540734
1.471535
1.471106
1.533650
1.551088
1.510917
1.603661
1.559905
1.547511
1.570426
1.587586
1.582002
1.622741
1.577317
1.573102
1.614328
1.599640
1.607355
1.626889
1.614579
1.616440
1.598189
1.614195
1.606111
1.588258
1.624796
1.607114
1.592082
1.606466
1.594903
1.599272
1.606479
1.609718
1.555359
1.572305
1.576863
1.538271
1.543459
1.525796
1.535372
1.560389
1.459201
1.466378
1.533670
1.380522
1.316965
1.156055
0.934318
1.037246
0.831515
1.079021
0.909220
0.927916
0.819747
0.851241
0.956714
1.077693
1.233992
1.357150
1.364293
1.212092
1.144951
1.132082
0.987978
1.121870
1.053802
1.338555
1.047741
1.211168
1.001797
1.193439
1.532502
1.454787
1.412068
1.361790
1.182621
1.092608
1.491762
1.545097
1.499211
1.482209
1.647813
1.621024
1.220797
1.148420
0.932923
0.905732
0.865743
0.858300
0.746244
0.704213
0.859134
1.163957
1.268957
1.384872
1.415719
1.193912
1.536545
1.577993
1.577278
1.552641
1.553314
1.536086
1.557444
1.559288
1.573696
1.572221
1.577933
1.577039
1.560185
1.553275
1.559908
1.560253
1.552476
1.556435
1.548280
1.546083
1.513759
1.506930
1.548735
1.453764
1.491944
1.552581
1.450651
1.369159
1.333147
1.334029
1.291782
1.285516
1.346225
1.344659
1.499220
1.546156
1.487844
1.531798
1.494088
1.489335
1.544011
1.504366
1.596347
1.548405
1.557238
1.564237
1.565168
1.548113
1.604173
1.548752
1.587089
1.572890
1.585313
1.597006
1.606853
1.588112
1.611320
1.589443
1.596935
1.598068
1.596292
1.609657
1.575856
1.550608
1.551789
1.563967
1.530780
1.529610
1.451563
1.488382
1.460133
1.464249
1.515095
1.489090
1.597136
1.571149
1.546730
1.584103
1.577773
1.580490
1.594446
1.562412
1.594454
1.605218
1.611801
1.596906
1.624693
1.627108
1.616604
1.602314
1.604208
1.601276
1.597448
1.606909
1.621849
1.592557
1.581262
1.625621
1.572751
1.585327
1.631854
1.551649
1.592899
1.582639
1.522607
1.573839
1.574278
1.516300
1.557170
1.495628
1.516077
1.496599
1.472973
1.301711
1.043909
0.838896
0.987547
0.974878
1.038057
1.212431
0.992876
0.900263
0.926465
1.058176
1.145993
1.312948
1.270783
1.143273
1.196430
1.074773
1.280680
1.212170
1.290263
1.237790
1.181602
0.910834
1.607630
1.600588
1.582334
1.564329
1.554306
1.546884
1.535319
1.521749
1.511123
1.505827
1.511433
1.517389
1.524207
1.159244
1.219279
1.336143
0.981101
1.147187
1.210568
1.127532
1.118261
1.050259
0.956711
0.778445
0.916354
0.966815
1.060743
1.296949
0.945198
1.216390
1.406295
1.431853
1.520592
1.578410
1.662418
1.439683
0.933936
0.834170
0.664810
0.809681
1.254237
1.395627
1.461643
1.536977
1.612531
1.362695
1.396357
1.430149
1.421486
1.456233
1.271323
1.407353
1.481499
1.599785
1.287038
0.979300
1.004242
1.295899
1.531854
1.591137
1.636149
1.657288
1.188916
1.167461
1.103267
1.213006
1.387270
1.188058
1.115180
1.171112
0.993832
0.891185
1.000567
1.202520
0.910059
0.993849
0.771784
0.910135
1.090504
1.395407
0.805174
0.722831
1.092716
0.812639
0.908443
1.275720
0.865485
0.920967
0.835742
1.035838
0.902374
0.852697
0.715998
1.134387
1.513888
1.563659
1.487961
1.595318
1.598821
1.492240
1.354755
1.098408
0.965179
0.996550
1.674043
1.543663
1.624353
1.359096
0.931678
1.005757
0.880654
0.941970
1.049804
1.230548
1.240942
1.361386
1.464327
1.504342
1.577274
1.629434
1.621574
1.521496
1.513596
1.285868
0.970480
0.853938
0.987814
1.207726
0.652026
1.042034
1.067849
1.226751
1.353115
1.498952
1.451111
1.461955
1.460708
1.460511
1.418105
1.353540
1.235016
1.123597
1.038780
0.943004
0.882337
0.888176
0.952907
1.029124
1.368604
1.442294
1.575784
1.623706
1.627754
1.584776
1.563795
1.498807
1.503328
1.482063
1.352071
1.121948
1.076918
0.848538
0.838346
1.026898
1.342116
1.435755
1.601519
1.634280
1.571433
1.502188
1.190231
0.890859
1.009082
1.080887
1.042310
1.112764
0.995585
0.969390
1.181629
1.342338
1.395382
1.523691
1.541253
1.515544
1.427196
1.207957
1.133582
1.081382
1.417445
1.074027
1.163063
1.057232
1.022968
0.985972
0.994836
0.910196
0.787201
1.109873
0.655647
0.811294
0.883100
1.082984
1.290232
1.456337
1.490444
1.564181
1.624912
1.616429
1.594779
1.263423
1.159229
0.883527
0.925832
1.298013
1.452961
1.519690
1.580472
1.571796
1.422640
1.433997
1.454994
1.447047
1.464561
1.508659
1.507390
1.593986
1.051668
1.334313
1.539928
1.595833
1.633573
1.654345
1.651586
1.541594
1.275705
1.288660
1.135640
1.286310
1.512201
1.277873
0.920058
0.838545
1.048452
1.284667
1.271015
1.127949
1.065098
1.069244
1.062269
1.133374
1.416054
1.591157
1.515268
1.447211
0.826735
0.789162
0.987108
0.895597
1.018541
0.811360
0.834587
1.109029
1.311645
1.506379
1.522290
1.447625
1.549399
1.600637
1.599480
1.453523
1.302000
1.019132
1.032185
1.223099
1.591282
1.600586
1.603468
1.590985
1.574265
1.553654
1.212261
1.038366
1.041847
0.974166
1.080534
1.196647
1.338571
1.359592
1.379730
1.460824
1.530429
1.551777
1.600039
1.606031
1.573645
1.548422
1.604064
1.688055
1.211049
1.099664
1.166620
0.942149
1.226531
0.972960
1.301077
1.331491
1.364731
1.125894
0.990692
1.054859
1.114147
1.006653
0.826621
0.789183
0.724070
0.732391
0.964958
1.288560
1.332414
1.412433
1.550317
1.557229
1.589814
1.517514
1.459350
1.436032
1.257924
1.184750
1.416085
1.459391
1.499903
1.518733
1.615948
1.615650
1.562636
1.563719
1.555609
1.530733
1.536820
1.557674
1.566091
1.580581
1.578324
1.578442
1.570979
1.562562
1.560009
1.555857
1.564750
1.542993
1.540746
1.546732
1.540788
1.545513
1.517518
1.460297
1.469477
1.528449
1.391813
1.337174
1.294557
1.259299
1.202977
1.232047
1.317735
1.372105
1.446720
1.509267
1.524072
1.485338
1.491844
1.521611
1.525939
1.502622
1.600435
1.550495
1.578236
1.557039
1.578752
1.571399
1.602619
1.583755
1.627071
1.595254
1.595602
1.580210
1.614736
1.607766
1.602344
1.604461
1.605964
1.623659
1.603659
1.603808
1.597742
1.576573
1.560301
1.549799
1.515162
1.528912
1.446124
1.455090
1.377329
1.452526
1.495638
1.509372
1.569822
1.589957
1.551565
1.561009
1.586428
1.594312
1.596227
1.586528
1.581776
1.601405
1.620587
1.586597
1.628158
1.620149
1.608272
1.605632
1.630827
1.609622
1.620748
1.630480
1.604277
1.600895
1.572994
1.611032
1.617620
1.655652
1.592846
1.644826
1.564843
1.557866
1.542871
1.562116
1.538031
1.524001
1.511392
1.470926
1.512859
1.512377
1.415035
1.261984
1.019955
0.875675
0.747843
0.585490
0.695286
0.993581
1.092032
1.442853
1.588599
1.571440
1.557828
1.558875
1.551582
1.545659
1.542170
1.533588
1.531891
1.533647
1.548219
1.325949
1.363365
1.483769
1.499558
1.479721
1.501867
1.486095
1.444699
1.386464
1.263060
1.106954
1.028196
0.987690
1.000487
1.029086
1.126044
1.352411
1.514838
1.606620
1.620577
1.622358
1.566231
1.562833
1.491897
1.374876
1.221941
1.191697
0.881531
0.908872
1.068721
1.334799
1.425312
1.561490
1.596829
1.591473
1.532704
1.311348
1.163838
1.521814
1.535087
1.416848
1.326039
1.108435
1.091678
1.029628
1.023340
0.817970
0.802364
0.710004
0.805733
1.045162
1.356885
1.375749
1.459562
1.541992
1.565870
1.541129
1.498832
1.471509
1.366415
1.261489
1.330489
1.417648
1.452956
1.500935
1.559409
1.613129
1.064136
1.040300
1.122867
1.565900
1.549555
1.247090
1.497367
1.366204
1.421297
1.518537
1.543877
1.496050
1.485020
1.456585
1.421489
1.318114
1.192066
1.111162
1.092045
1.128355
1.259727
1.349924
1.500779
1.582914
1.618348
1.621055
1.579881
1.559327
1.541804
1.464822
1.374968
1.264228
1.017840
1.083328
1.389628
1.449791
1.505562
1.575347
1.597866
1.566215
1.441633
1.262694
1.519850
1.403561
1.171721
1.001789
1.184542
1.513786
1.416029
1.133680
1.302626
1.369514
1.449878
1.552913
1.549024
1.555957
1.537541
1.560580
1.436752
1.475310
1.383342
1.216858
1.341539
1.186162
1.133039
1.001184
1.593597
1.577972
1.565019
1.553963
1.546168
1.537229
1.535935
1.534897
1.551543
1.540115
1.542028
1.543619
1.527867
1.537502
1.552732
1.580687
1.586769
1.575902
1.578839
1.585704
1.559698
1.562061
1.564868
1.554769
1.529432
1.512797
1.569043
1.503317
1.495412
1.489789
1.475327
1.415554
1.328336
1.276788
1.259731
1.228663
1.216811
1.285407
1.353044
1.482061
1.474174
1.540348
1.495204
1.509625
1.542904
1.538328
1.514093
1.588029
1.553202
1.580978
1.568939
1.591602
1.573010
1.605181
1.584734
1.615864
1.595116
1.595475
1.599463
1.623347
1.618314
1.604203
1.613031
1.612228
1.602522
1.581309
1.603078
1.593502
1.579143
1.552509
1.551064
1.547932
1.538620
1.435451
1.363180
1.365596
1.436462
1.491691
1.528289
1.546105
1.597046
1.568348
1.578106
1.567974
1.578997
1.611067
1.588421
1.580873
1.605797
1.614555
1.608357
1.610519
1.630338
1.610990
1.636812
1.609561
1.617085
1.605023
1.616744
1.622353
1.579146
1.599569
1.595862
1.620379
1.614603
1.597059
1.586710
1.620570
1.542660
1.580474
1.507740
1.538904
1.537267
1.517884
1.532572
1.464832
1.482322
1.438364
1.295895
1.131090
0.965171
0.760501
0.710668
0.607518
0.810554
1.102572
1.362034
1.238511
1.580010
1.652578
1.670972
1.150256
1.390256
1.536254
1.601413
1.629303
1.651672
1.594630
1.544031
1.382795
1.102190
1.183332
1.230271
1.167302
1.368495
1.403636
1.314372
1.090610
1.037035
1.043957
0.891065
1.005066
1.053314
1.112203
1.417294
1.471606
1.330659
1.276500
1.031432
1.130017
0.877544
0.906823
0.902930
0.901772
0.915462
1.067680
0.928651
0.927981
0.964445
1.000256
1.289862
1.178698
1.202772
1.488127
0.934497
0.836048
0.931112
0.923186
1.089568
1.312934
1.503922
1.463402
1.521632
1.609337
1.550616
1.594440
1.491278
1.416572
1.122804
1.158230
1.325756
1.556244
1.598481
1.593476
1.597673
1.544319
1.548218
1.500766
1.441267
1.199915
1.089994
1.110835
1.177406
1.133312
1.152928
1.292568
1.381869
1.414502
1.432357
1.496318
1.514487
1.565374
1.583217
1.617711
1.537145
1.457589
1.361038
1.334656
0.808121
0.975370
1.236557
1.396940
1.438494
1.514858
1.541067
1.544524
1.504196
1.260833
1.595584
1.585327
1.557136
1.527905
1.442895
1.356846
1.248165
1.209118
1.095165
1.039236
1.105239
1.155194
1.356085
1.412195
1.476261
1.576818
1.595406
1.566301
1.504157
1.328056
1.351590
1.444271
1.491957
1.508228
1.459656
1.380669
1.156571
1.317739
1.386589
1.353080
1.392312
1.480463
1.537265
1.545823
1.548564
1.555124
1.443835
1.573184
1.403477
1.285222
1.161038
1.371202
1.318784
1.189449
1.309660
1.210363
1.371841
1.346633
1.145363
1.402239
1.485488
1.488791
1.070063
1.009084
0.750963
1.362321
0.659930
0.886715
0.879564
0.848295
0.974648
0.870207
0.772757
0.818467
0.781794
0.759652
0.776511
1.391702
1.465581
1.541273
1.595283
1.614274
1.617195
1.500429
1.283380
1.179224
0.991867
1.002863
1.303551
1.458531
1.549126
1.561854
1.535086
1.466959
1.455154
1.487344
1.511855
1.534132
1.327494
1.326635
1.350746
1.414914
1.463195
1.494870
1.525820
1.559703
1.553425
1.539575
1.532707
1.532855
1.531393
1.531211
1.533042
1.522689
1.514609
1.524133
1.499980
1.520021
1.545620
1.554568
1.563782
1.587290
1.602077
1.563660
1.570687
1.593835
1.572740
1.484769
1.525305
1.513455
1.533929
1.507840
1.496809
1.474155
1.470429
1.418714
1.351048
1.299266
1.281406
1.275880
1.222543
1.327064
1.427683
1.481729
1.505132
1.542352
1.527490
1.528451
1.562964
1.555818
1.549148
1.579926
1.562541
1.594368
1.590900
1.600034
1.577577
1.610215
1.600533
1.619689
1.606933
1.612031
1.592026
1.638734
1.601444
1.586884
1.617731
1.617406
1.603373
1.596554
1.596115
1.591544
1.571885
1.569700
1.563812
1.548208
1.528757
1.478510
1.348561
1.356185
1.438614
1.489640
1.524748
1.557305
1.571098
1.588614
1.584163
1.587276
1.582134
1.592245
1.582448
1.598025
1.617684
1.616891
1.620038
1.633002
1.609709
1.640648
1.616776
1.617356
1.616323
1.625715
1.606585
1.614182
1.606265
1.598953
1.581082
1.609458
1.611954
1.596050
1.593961
1.577669
1.563398
1.521197
1.568115
1.515749
1.530195
1.521778
1.508892
1.494280
1.435921
1.358774
1.273765
1.142568
1.018096
0.852816
0.919082
0.906622
0.915577
1.605138
1.577228
0.897867
0.899154
0.896860
0.826618
0.963748
1.215664
1.133343
1.135573
1.312550
1.384301
1.299617
1.109061
0.986984
1.322980
1.116776
1.599546
1.597707
1.588527
1.573378
1.551284
1.439959
1.359750
1.294267
1.284079
1.175030
1.061985
1.025103
1.128001
1.304646
1.289139
1.514976
1.474660
1.558093
1.572260
1.547502
1.520713
1.408127
1.463445
1.448044
1.432745
1.504680
1.507984
1.425255
1.328911
1.286124
1.378285
1.394408
1.448587
1.473157
1.512065
1.549126
1.557113
1.467844
1.506610
1.313626
0.814987
0.847063
0.752704
0.965937
1.515717
1.573156
1.595095
1.606533
1.580273
1.462127
1.292666
1.173489
1.082153
1.170921
1.387948
1.502236
1.529273
1.532426
1.532273
1.512868
1.534763
1.572387
1.605461
1.630426
0.951739
1.181056
1.372870
1.470997
1.501029
1.498396
1.502097
1.469386
1.398568
1.486667
1.415426
1.373907
1.347938
1.397124
1.436433
1.457830
1.487754
1.521269
1.527993
1.522478
1.435225
1.169741
1.183794
1.384870
1.546207
1.584852
1.579925
1.579963
1.585872
1.530529
1.519202
1.488113
1.426661
1.347511
1.239250
1.186365
1.168536
1.235420
1.102084
1.156744
1.219621
1.322234
1.452057
1.457379
1.476580
1.500120
1.562761
1.583513
1.523850
1.524049
1.529694
1.527835
1.523085
1.532157
1.528467
1.533768
1.495878
1.507984
1.505290
1.545487
1.563791
1.571913
1.578016
1.577338
1.563352
1.515384
1.496679
1.494840
1.512125
1.516007
1.506682
1.488940
1.480247
1.471859
1.428434
1.388637
1.345435
1.383568
1.313793
1.313671
1.460679
1.487024
1.521211
1.544117
1.543585
1.560540
1.568665
1.578842
1.572450
1.611938
1.576454
1.559149
1.583230
1.615547
1.594430
1.595388
1.617592
1.604775
1.598358
1.622136
1.599333
1.596137
1.633083
1.616212
1.603236
1.622363
1.620874
1.619572
1.589445
1.609954
1.590284
1.568014
1.572296
1.571923
1.562200
1.526529
1.481190
1.372384
1.378363
1.443556
1.495022
1.525613
1.544650
1.568766
1.583141
1.594345
1.590077
1.592781
1.570645
1.584105
1.583414
1.605023
1.580670
1.586111
1.595150
1.616151
1.618397
1.626495
1.628769
1.624751
1.630050
1.632385
1.623740
1.601349
1.620866
1.602326
1.617886
1.613499
1.597070
1.592518
1.603606
1.620934
1.588212
1.572903
1.561440
1.538148
1.549204
1.528759
1.569739
1.511055
1.538296
1.502512
1.507173
1.467301
1.463822
1.356335
1.322145
1.147100
1.012913
0.882318
1.020555
1.598531
1.592256
1.584587
1.576723
1.553012
1.518675
1.414806
1.376423
1.324947
1.280303
1.185958
1.199107
1.095572
1.253778
1.329814
1.485090
1.504694
1.503800
1.570855
1.550124
1.550062
1.540164
1.458328
1.451830
1.474968
1.495986
1.493229
1.466757
1.492605
1.408455
1.300075
1.249969
1.315090
1.358473
1.392480
1.424050
1.471865
1.492717
1.530904
1.538539
1.522169
1.493059
1.449064
1.600764
1.347690
1.296737
1.190594
1.146667
1.226161
1.238237
1.127246
1.318893
1.383641
1.331781
1.418459
1.177308
1.136746
1.149816
1.085759
1.356533
1.478869
1.454292
1.467973
1.485177
1.590748
1.303590
1.379966
1.459976
1.483899
1.495366
1.470421
1.440991
1.429170
1.353116
1.248367
1.172592
1.166231
1.196009
1.290207
1.412825
1.500300
1.595232
1.570439
1.589831
1.602375
1.557464
1.396104
1.197193
1.124686
1.052610
1.251056
1.336414
1.423270
1.497488
1.504229
1.588856
1.564326
1.656453
1.633701
1.603425
1.481601
1.270203
1.399258
1.532821
1.598009
1.635847
1.623959
1.565768
1.439287
1.460290
1.303257
1.247993
1.580249
1.552402
1.482925
1.441339
1.418187
1.434752
0.938558
0.994397
0.864904
0.927114
1.430449
1.330344
1.442447
1.385179
1.376616
1.389731
1.409441
1.441635
1.471156
1.498992
1.516873
1.472970
1.232585
1.239361
1.422991
1.540653
1.572375
1.579172
1.558441
1.560244
1.517794
1.543505
1.488677
1.488700
1.458299
1.399813
1.337381
1.201111
1.226274
1.207384
1.145426
0.936867
0.993383
1.114645
1.095468
1.087493
1.186538
1.269833
1.229290
1.209519
1.049609
0.960946
1.521060
1.525020
1.524846
1.516976
1.517764
1.507469
1.597833
1.601146
1.584611
1.595044
1.447615
1.454524
1.505539
1.525605
1.508151
1.493815
1.495261
1.475790
1.489829
1.454303
1.395504
1.328807
1.444943
1.483921
1.426249
1.514812
1.514888
1.534946
1.541107
1.555997
1.559234
1.554094
1.585089
1.565823
1.603173
1.597917
1.574616
1.591846
1.624349
1.600139
1.582537
1.611840
1.597124
1.619800
1.614543
1.581836
1.614731
1.632382
1.626696
1.602842
1.629109
1.622935
1.608696
1.598208
1.603502
1.581474
1.573649
1.575009
1.576923
1.562069
1.531667
1.488461
1.400949
1.405839
1.410175
1.492323
1.513604
1.542241
1.561401
1.570749
1.597273
1.592517
1.478335
1.507482
1.517083
1.522789
1.514009
1.512257
1.422676
1.410588
1.487890
1.648881
1.513545
1.597751
1.447614
1.513949
1.522960
1.534095
1.522921
1.512362
1.504031
1.477849
1.533831
1.443597
1.323015
1.600945
1.533570
1.377592
1.453664
1.552810
1.560504
1.541305
1.539986
1.547101
1.543555
1.572522
1.567622
1.586824
1.621175
1.600686
1.564895
1.593551
1.622151
1.620982
1.594964
1.624461
1.628191
1.630737
1.613202
1.605075
1.610534
1.630320
1.608595
1.607860
1.638247
1.613310
1.616030
1.603186
1.574539
1.559663
1.575950
1.565863
1.558131
1.532834
1.564764
1.317585
1.312122
1.502489
1.502712
1.508168
1.533843
1.552462
1.572151
1.588904
1.588830
1.587438
1.594173
1.592075
1.645350
1.637002
1.626089
1.604322
1.593455
1.523862
1.329187
1.421232
1.541271
1.609535
1.612229
1.635092
1.613942
1.555934
1.457089
1.442063
1.318127
1.267651
1.123620
1.136492
1.192196
1.331796
1.344573
1.287920
1.133643
1.075664
1.095933
1.149064
1.132642
1.104941
1.070159
0.998742
1.133987
1.558779
1.476024
1.340020
1.428516
1.496463
1.330273
1.269129
1.382264
1.495173
1.534554
1.570566
1.592409
1.580823
1.591940
1.579922
1.547092
1.464242
1.364422
1.270664
1.230215
1.216790
1.179733
1.027873
1.013454
1.010611
1.260797
1.306520
1.394278
1.451110
1.572987
1.568518
1.586174
1.582886
1.539899
1.442016
1.360630
1.202792
1.159085
1.246938
1.377226
1.486956
1.527025
1.541516
1.550635
1.560079
1.586613
1.602503
1.623621
1.586592
1.421124
1.398227
1.615154
1.553584
1.504699
1.519169
1.538216
1.559623
1.553243
1.542696
1.530329
1.512125
1.507275
1.537803
1.521609
1.453425
1.265128
1.501184
1.323868
1.461392
1.572713
1.559479
1.554310
1.548396
1.538085
1.554375
1.576596
1.549447
1.553973
1.598764
1.579204
1.577843
1.591689
1.616343
1.606419
1.598200
1.627157
1.621833
1.589259
1.597718
1.613183
1.617721
1.640066
1.618585
1.602549
1.629497
1.612622
1.610609
1.606356
1.565664
1.574523
1.578104
1.576671
1.571441
1.547631
1.453696
1.530590
1.452935
1.454848
1.520754
1.523904
1.535224
1.547572
1.574205
1.584716
1.591107
1.587246
1.583932
1.604238
1.596106
1.581127
1.585675
1.591755
1.613789
1.614382
1.619888
1.638826
1.622592
1.619360
1.639080
1.624426
1.609222
1.610713
1.605474
1.617675
1.607800
1.617851
1.585381
1.620984
1.611999
1.602003
1.574234
1.587880
1.524693
1.587879
1.563855
1.527031
1.548884
1.525727
1.516116
1.484671
1.464099
1.467245
1.398938
1.339542
1.255686
1.074420
1.346959
1.462328
1.103206
1.174533
1.323341
1.396743
1.448189
1.505770
1.510049
1.588082
1.529890
1.366808
1.439352
1.536124
1.561836
1.567226
1.568440
1.558516
1.509452
1.530277
1.502649
1.492220
1.463788
1.450482
1.397930
1.312251
1.265266
1.163975
1.258576
1.188267
1.171493
1.269772
1.333538
1.413875
1.436308
1.474378
1.484114
1.503912
1.556259
1.574786
1.341810
1.361526
1.410539
1.518713
1.492499
1.455090
1.417908
1.412454
1.421406
1.369398
1.285682
1.221090
1.208157
1.249025
1.376847
1.465105
1.533225
1.589312
1.587944
1.592704
1.588387
1.606840
1.611991
1.621262
1.630160
1.627605
1.623109
1.632652
1.633345
1.606998
1.603809
1.606139
1.617255
1.612046
1.623855
1.590165
1.620519
1.622858
1.588750
1.596223
1.572054
1.568465
1.561846
1.547586
1.551021
1.514690
1.542445
1.505097
1.477368
1.471646
1.432236
1.391444
1.361578
1.275046
1.092074
1.628031
1.626674
1.598874
1.617189
1.614183
1.542761
1.548902
1.422718
1.454322
1.556494
1.598298
1.641093
1.589781
1.565067
1.547907
1.457023
1.413508
1.288167
1.208232
1.182136
1.131217
1.151584
1.224023
1.311328
1.292245
1.157176
1.274220
1.292302
1.324241
1.361334
1.401273
1.437371
1.478188
1.512252
1.509414
1.520233
1.517829
1.494877
1.518179
1.529960
1.492733
1.237820
1.408070
1.443292
1.489760
1.556086
1.614540
1.346439
1.307733
1.475853
1.534713
1.566922
1.601270
1.606048
1.583721
1.316250
1.376058
1.408100
1.414669
1.480464
1.423771
1.352548
1.405122
1.374806
1.386254
1.418616
1.448049
1.475651
1.499607
1.503500
1.521499
1.520311
1.046849
1.139358
1.171625
1.220780
1.293236
1.431987
1.461759
1.498114
1.562914
1.545742
1.531001
1.440720
1.460410
1.419187
1.357994
1.421024
1.487943
1.500663
1.530981
1.460530
1.465285
1.440960
1.434229
1.468112
1.369836
1.506863
1.547130
1.554805
1.570253
1.556651
1.571048
1.580092
1.489288
1.449023
1.437507
1.433823
1.431263
1.431916
1.073309
1.151464
1.269375
1.203639
1.201353
1.278983
1.305426
1.343946
1.440134
1.434300
1.482306
1.495615
1.509231
1.562454
1.526135
1.367728
1.370540
1.360749
1.402489
1.393076
1.430045
1.432440
1.468062
1.501588
1.516792
1.503176
1.521152
1.452121
1.428016
1.431833
1.493393
1.435915
1.351216
1.170056
1.450585
1.488715
1.505292
1.075003
1.020696
1.457466
1.393298
1.312402
1.259044
1.260464
1.283073
1.377200
1.472377
1.547685
1.589883
1.579506
1.547778
1.540744
1.502390
1.456639
1.393598
1.363544
1.303155
1.250448
1.196630
1.279807
1.231798
1.296032
1.438923
1.483843
1.577984
1.536415
1.566197
1.568280
1.534446
1.509317
1.501998
1.546847
1.495465
1.498003
1.470955
1.482682
1.473795
1.580393
1.560317
1.562823
1.515186
1.464029
1.396526
1.276416
1.275364
1.343414
1.429656
1.528813
1.547209
1.554075
1.579189
1.602638
1.616715
1.564617
1.484682
1.066179
1.087111
1.130418
1.129668
1.139459
1.238979
1.236409
1.241417
1.401320
1.442042
1.509929
1.546285
1.524327
1.521181
1.461712
1.409701
1.347311
1.279279
1.261463
1.296191
1.370055
1.458425
1.532339
1.548191
1.557933
1.535832
1.530711
1.483635
1.510355
1.474606
1.398437
1.361445
1.396239
1.318664
1.203574
1.202618
1.236850
1.295353
1.345875
1.478482
1.524500
1.526393
1.543429
1.516818
1.523198
1.484535
1.487586
1.485740
1.581813
1.480203
1.510148
1.473693
1.450588
1.475766
1.497614
1.419625
1.380433
1.368810
1.321979
1.270556
1.302653
1.334707
1.617366
1.612384
1.587190
1.601765
1.607675
1.587038
1.454424
1.462142
1.467461
1.570661
1.592280
1.594754
1.621737
1.547887
1.473109
1.450368
1.380804
1.313351
1.251056
1.215856
1.205194
1.183818
1.191712
1.230978
1.235965
1.125232
1.479575
1.479881
1.477045
1.449144
1.439493
1.364068
1.484394
1.529607
1.564237
1.557314
1.547664
1.542196
1.557864
1.534814
1.525250
1.444037
1.446741
1.443445
1.538384
1.441765
1.032806
1.134638
1.218635
1.189948
1.251159
1.268505
1.322758
1.388659
1.360000
1.427816
1.434033
1.457767
1.452749
1.475095
1.486135
1.494988
1.596184
1.592789
1.592132
1.596103
1.594066
1.610952
1.615291
1.628803
1.617674
1.627795
1.633938
1.610108
1.606841
1.594120
1.625774
1.624522
1.625335
1.600345
1.631640
1.605261
1.606609
1.596902
1.567841
1.581009
1.567027
1.550576
1.535357
1.514454
1.536747
1.523682
1.503735
1.493221
1.412733
1.394819
1.353363
1.251521
1.133788
1.514060
1.553963
1.588614
1.598909
1.597486
1.590901
1.564060
1.579408
1.203631
1.335065
1.385610
1.311106
1.302576
1.360888
1.411546
1.442114
1.466937
1.499446
1.556780
1.530650
1.419216
1.492490
1.518941
1.558668
1.578768
1.502048
1.501647
1.517815
1.541915
1.575938
1.590615
1.597302
1.590464
1.582806
1.563575
1.457376
1.401043
1.337656
1.330344
1.367720
1.382649
1.353023
1.478555
1.523923
1.573289
1.552503
1.576897
1.562763
1.559633
1.517663
1.525030
1.491780
1.396238
1.364242
1.355042
1.382382
1.475092
1.538515
1.542613
1.535617
1.543100
1.568366
1.558971
1.588667
1.607517
1.611124
1.127624
1.146905
1.104205
1.117919
1.094168
1.039757
1.553167
1.530161
1.571714
1.569541
1.590617
1.589117
1.389994
1.250563
1.416345
1.387807
1.542087
1.532015
1.557339
1.544342
1.536554
1.567069
1.570083
1.561391
1.564670
1.576091
1.576320
1.616964
1.599078
1.626211
1.607848
1.601524
1.616136
1.643434
1.579055
1.604347
1.605470
1.624170
1.622872
1.619191
1.596173
1.633780
1.610666
1.615962
1.578932
1.572171
1.531129
1.501622
1.479394
1.480081
1.471104
1.458899
1.447848
1.459659
1.498698
1.510723
1.559260
1.548262
1.523829
1.523480
1.531830
1.523518
1.577991
1.492244
1.435931
1.426814
1.470445
1.549953
1.425977
1.285809
1.073421
1.127144
1.205582
1.156766
1.184233
1.318039
1.320144
1.385795
1.411369
1.413725
1.437564
1.454486
1.450558
1.449765
1.451769
1.471309
1.357885
1.551458
1.576200
1.583932
1.586338
1.585537
1.576143
1.558470
1.349698
1.306414
1.348683
1.349589
1.442698
1.411496
1.390874
1.505687
1.455327
1.520166
1.562749
1.577930
1.583078
1.429326
1.427694
1.397384
1.460363
1.471264
1.509115
1.512157
1.511448
1.506696
1.504866
1.516617
1.445897
1.426065
1.311327
1.411795
1.373695
1.342359
1.370453
1.632551
1.624898
1.143370
1.164269
1.212917
1.194033
1.269854
1.262140
1.296653
1.422183
1.493408
1.493494
1.585553
1.597006
1.589755
1.591190
1.601544
1.606931
1.567870
1.486887
1.541394
1.593225
1.593883
1.596517
1.600829
1.570240
1.484792
1.479408
1.430316
1.381101
1.336616
1.278741
1.254023
1.235091
1.218111
1.201799
1.203487
1.594579
1.593806
1.598552
1.590939
1.596444
1.615704
1.612722
1.622112
1.615646
1.614620
1.626106
1.622104
1.621647
1.622899
1.640599
1.610728
1.597355
1.588624
1.616360
1.615055
1.625599
1.610422
1.600321
1.612675
1.621479
1.598654
1.603836
1.568419
1.557645
1.561794
1.522377
1.520184
1.546885
1.541456
1.535772
1.550685
1.557525
1.533809
1.552030
1.521643
1.536467
1.503674
1.434150
1.420058
1.383368
1.448211
1.596788
1.595940
1.601357
1.571521
1.568671
1.577720
1.569122
1.560441
1.549992
1.555391
1.492715
1.495895
1.423516
1.461221
1.525586
1.529942
1.576199
1.587312
1.586135
1.596898
1.594969
1.592913
1.588245
1.592740
1.607058
1.620456
1.625800
1.554338
1.550567
1.454795
1.455991
1.184987
1.154762
1.417983
1.371387
1.321258
1.298215
1.309201
1.365561
1.441660
1.543598
1.525667
1.539273
1.550252
1.540963
1.506169
1.504748
1.520546
1.415685
1.431882
1.395360
1.373173
1.348183
1.475381
1.465092
1.543557
1.548908
1.536969
1.535711
1.499308
1.528182
1.484298
1.548747
1.517318
1.513233
1.532440
1.471099
1.621318
1.613450
1.627925
1.630944
1.622307
1.623337
1.628252
1.629673
1.611768
1.608252
1.578913
1.621663
1.602806
1.634199
1.612830
1.592075
1.634017
1.603423
1.612487
1.558754
1.556183
1.546649
1.540482
1.532791
1.538469
1.557894
1.368342
1.471490
1.473501
1.476161
1.523250
1.489047
1.480668
1.461250
1.492694
1.463560
1.551673
1.525135
1.582916
1.558115
1.547358
1.525853
1.514214
1.518560
1.542839
1.493196
1.539812
1.500593
1.429599
1.405563
1.472565
1.604329
1.568921
1.410018
1.219792
1.160881
1.188835
1.227438
1.228637
1.331909
1.515721
1.515856
1.558140
1.555944
1.544697
1.527385
1.557469
1.550645
1.533641
1.583744
1.560599
1.575162
1.608751
1.568865
1.622781
1.582775
1.593820
1.616232
1.618500
1.581926
1.604466
1.617016
1.616232
1.630500
1.618531
1.598767
1.615499
1.626740
1.617925
1.581684
1.399826
1.467697
1.501740
1.543258
1.548486
1.539874
1.537859
1.537414
1.540742
1.537100
1.576414
1.549722
1.592488
1.585662
1.568580
1.602963
1.569571
1.592114
1.608172
1.610157
1.590471
1.586471
1.610055
1.612115
1.620612
1.603645
1.584314
1.611440
1.623431
1.606440
1.604751
1.583781
1.582825
1.568221
1.578197
1.563964
1.570464
1.580171
1.580452
1.567744
1.551088
1.507770
1.586115
1.494488
1.426528
1.517202
1.529904
1.524174
1.528811
1.535619
1.559071
1.563448
1.578321
1.586422
1.594729
1.585079
1.596864
1.581505
1.584958
1.597631
1.601925
1.613355
1.202571
1.181146
1.241188
1.189274
1.109925
1.202870
1.590773
1.579817
1.587383
1.589663
1.591705
1.589245
1.574657
1.541899
1.505262
1.559384
1.616435
1.578170
1.576971
1.583569
1.567457
1.524301
1.513848
1.443249
1.452895
1.410721
1.374370
1.334100
1.310352
1.273376
1.194792
1.556135
1.563753
1.536324
1.534859
1.499164
1.469888
1.457597
1.444413
1.507784
1.559543
1.567645
1.598968
1.585686
1.600858
1.585407
1.519707
1.549324
1.550923
1.551662
1.514463
1.538831
1.505909
1.522911
1.510863
1.520191
1.486883
1.430253
1.404612
1.485283
1.232045
1.281084
1.472595
1.467527
1.473112
1.499979
1.528377
1.506528
1.496660
1.501359
1.475675
1.458103
1.538880
1.502689
1.553589
1.562784
1.552848
1.544610
1.526402
1.527737
1.533868
1.514890
1.531312
1.501678
1.537855
1.453884
1.438279
1.396876
1.423770
1.480732
1.533654
1.457290
1.321351
1.281564
1.169895
1.183918
1.312109
1.301550
1.316672
1.341055
1.392101
1.426090
1.444228
1.440832
1.429975
1.409580
1.408662
1.612135
1.639241
1.277737
1.261494
1.313729
1.405107
1.378582
1.353992
1.323759
1.344546
1.400702
1.437545
1.532952
1.521499
1.507420
1.515098
1.528912
1.487502
1.486589
1.497152
1.492585
1.474433
1.462459
1.382951
1.359446
1.308335
1.396863
1.365374
1.432118
1.471069
1.519505
1.535140
1.523652
1.543306
1.566181
1.490318
1.518446
1.497920
1.530832
1.547260
1.581219
1.498993
1.545551
1.589192
1.608432
1.628675
1.635815
1.620195
1.613642
1.602491
1.584374
1.604370
1.617700
1.613159
1.623856
1.589426
1.602744
1.579361
1.573637
1.592029
1.549456
1.543934
1.510538
1.543759
1.544206
1.572737
1.570908
1.568187
1.569400
1.581498
1.565082
1.557245
1.550886
1.511408
1.567494
1.443936
1.562031
1.455285
1.524533
1.535429
1.521242
1.534283
1.551801
1.556544
1.563591
1.570270
1.591831
1.585103
1.593895
1.582570
1.574737
1.580125
1.596436
1.589345
1.612598
1.622756
1.624745
1.631189
1.618778
1.578910
1.577714
1.611622
1.581504
1.581921
1.585243
1.580168
1.563825
1.548691
1.546006
1.590920
1.584467
1.571303
1.581089
1.573736
1.532678
1.512880
1.484053
1.461104
1.488517
1.465302
1.436693
1.398161
1.344318
1.319431
1.346282
1.380768
1.509993
1.525522
1.511460
1.547319
1.579796
1.579489
1.524172
1.568312
1.567316
1.384327
1.369031
1.369416
1.381959
1.409751
1.454205
1.439873
1.476734
1.489141
1.472432
1.523024
1.489901
1.484764
1.431623
1.484809
1.446852
1.458198
1.457718
1.434498
1.418606
1.305666
1.449810
1.447645
1.434302
1.494343
1.515014
1.522681
1.505199
1.526764
1.512841
1.514950
1.559081
1.519597
1.538741
1.581722
1.601467
1.491599
1.559593
1.496240
1.517951
1.563471
1.527337
1.512650
1.502588
1.520535
1.465035
1.549011
1.572285
1.573363
1.587366
1.604880
1.595115
1.600459
1.579980
1.430128
1.451998
1.466811
1.504311
1.532991
1.520689
1.520412
1.500352
1.496261
1.506822
1.505662
1.486895
1.511355
1.536311
1.549142
1.531628
1.536298
1.540548
1.522873
1.554914
1.519851
1.553366
1.471721
1.554745
1.361449
1.353802
1.368106
1.434358
1.527651
1.538463
1.609618
1.614789
1.605900
1.587373
1.446165
1.401250
1.355684
1.242332
1.254666
1.202036
1.249478
1.298558
1.342630
1.388731
1.369169
1.404918
1.429615
1.435988
1.421906
1.407902
1.565265
1.576795
1.584849
1.591099
1.575515
1.590720
1.562871
1.586971
1.596590
1.601781
1.594908
1.623581
1.613473
1.624961
1.615260
1.619707
1.623072
1.560930
1.559767
1.591250
1.527033
1.602914
1.583691
1.586342
1.599133
1.603186
1.597102
1.598030
1.615787
1.611743
1.623199
1.603232
1.581878
1.616435
1.606552
1.614233
1.581646
1.592310
1.599643
1.601313
1.588255
1.597914
1.587773
1.570992
1.563202
1.564734
1.583906
1.583933
1.568671
1.587398
1.552063
1.522827
1.514116
1.468744
1.499358
1.545725
1.527464
1.532534
1.562142
1.546201
1.531330
1.584089
1.584094
1.598767
1.602144
1.606593
1.621765
1.573735
1.519568
1.535909
1.533706
1.551356
1.394191
1.398920
1.406155
1.448421
1.450687
1.562910
1.554338
1.553335
1.559970
1.560467
1.534088
1.461805
1.300880
1.308113
1.289100
1.280639
1.254291
1.282193
1.331424
1.394297
1.386990
1.392857
1.393313
1.416077
1.425714
1.423161
1.402509
1.609984
1.544861
1.585181
1.590772
1.559993
1.606238
1.574411
1.614925
1.597667
1.606077
1.622025
1.608988
1.618790
1.600444
1.607445
1.610233
1.607085
1.593701
1.582888
1.562259
1.568859
1.566246
1.569602
1.573354
1.560859
1.549979
1.519355
1.532254
1.397857
1.441730
1.492289
1.489550
1.621016
1.626267
1.608536
1.608567
1.585620
1.615218
1.606038
1.599241
1.625902
1.599945
1.592675
1.580952
1.589019
1.599773
1.579484
1.434493
1.455451
1.432862
1.478917
1.518010
1.538064
1.572953
1.583764
1.576937
1.591085
1.560770
1.567080
1.590664
1.594178
1.608574
1.595408
1.625262
1.619690
1.610746
1.616266
1.614885
1.620997
1.625923
1.612740
1.612441
1.600679
1.597773
1.595538
1.602878
1.599101
1.615156
1.617395
1.610077
1.580796
1.593249
1.591517
1.554437
1.586131
1.593944
1.584874
1.589915
1.582693
1.583479
1.577020
1.566270
1.582831
1.583229
1.537380
1.543259
1.486931
1.488413
1.599592
1.500835
1.558135
1.611603
1.543560
1.568176
1.512910
1.507773
1.467634
1.470501
1.493488
1.493867
1.519274
1.524918
1.489051
1.486674
1.480941
1.497565
1.434496
1.411167
1.444461
1.416866
1.580143
1.582207
1.584064
1.602927
1.597819
1.596619
1.591703
1.585167
1.564983
1.580220
1.559605
1.596550
1.544335
1.546185
1.518073
1.509183
1.525191
1.525437
1.526343
1.513949
1.501127
1.503655
1.511149
1.515811
1.599612
1.527306
1.562962
1.560039
1.596934
1.544061
1.588456
1.585984
1.600813
1.599018
1.624773
1.601232
1.600915
1.599384
1.589062
1.582111
1.582543
1.580641
1.563682
1.563610
1.566183
1.573458
1.569519
1.548305
1.540260
1.502220
1.478014
1.382759
1.422674
1.484534
1.513393
1.486195
1.502660
1.510467
1.545355
1.569524
1.570742
1.576729
1.580252
1.568557
1.552689
1.568531
1.602312
1.580303
1.610349
1.597423
1.403959
1.390914
1.464675
1.597974
1.500431
1.441767
1.346355
1.344546
1.320751
1.280136
1.326623
1.390728
1.400040
1.425562
1.419321
1.417286
1.422092
1.438660
1.438900
1.529540
1.531908
1.536818
1.539001
1.550838
1.559681
1.559513
1.556370
1.528903
1.507981
1.469421
1.516385
1.531388
1.461985
1.392946
1.378475
1.423783
1.540837
1.587801
1.589132
1.594210
1.598123
1.588372
1.585863
1.568517
1.556200
1.588987
1.589585
1.572650
1.596056
1.561255
1.559450
1.565538
1.532839
1.571818
1.537596
1.565343
1.537425
1.498771
1.508178
1.523625
1.466175
1.446744
1.516624
1.485866
1.493620
1.526242
1.550022
1.527572
1.489914
1.519826
1.569123
1.545671
1.553645
1.608795
1.602511
1.607327
1.613292
1.615423
1.608323
1.613886
1.621495
1.604840
1.604002
1.606472
1.582525
1.601426
1.593023
1.565062
1.563085
1.549031
1.572412
1.587131
1.609920
1.603679
1.616886
1.590864
1.587468
1.572839
1.578931
1.563524
1.574640
1.568618
1.565331
1.558367
1.565827
1.570565
1.564590
1.548971
1.537665
1.512811
1.475695
1.493792
1.438762
1.480091
1.559876
1.507951
1.499723
1.491577
1.522917
1.535476
1.554079
1.571673
1.568219
1.572672
1.572229
1.566991
1.550560
1.533282
1.606945
1.600502
1.583826
1.597460
1.466896
1.480993
1.523221
1.513818
1.523927
1.493456
1.539187
1.553417
1.526370
1.486711
1.480176
1.458751
1.405337
1.416316
1.606553
1.629420
1.596219
1.589775
1.614947
1.597411
1.592519
1.571833
1.573486
1.595089
1.604355
1.353737
1.405500
1.442827
1.464181
1.456424
1.438376
1.433136
1.432686
1.445077
1.597481
1.540667
1.558398
1.574056
1.588848
1.569819
1.583133
1.596632
1.587537
1.591796
1.569715
1.581477
1.546308
1.558746
1.563404
1.564492
1.556869
1.565722
1.567336
1.563261
1.550815
1.544062
1.523237
1.477097
1.427142
1.400725
1.357634
1.421137
1.446779
1.457035
1.439189
1.492585
1.569665
1.553472
1.572342
1.568794
1.567978
1.567192
1.561163
1.560437
1.553856
1.559437
1.577026
1.585556
1.554825
1.574036
1.583488
1.452337
1.468541
1.486039
1.519559
1.527197
1.519903
1.562351
1.570354
1.571447
1.486439
1.532008
1.394226
1.427023
1.549765
1.585850
1.568825
1.467945
1.444070
1.583060
1.603586
1.612612
1.589271
1.593659
1.599883
1.578709
1.584510
1.598756
1.595032
1.578031
1.589059
1.589078
1.586624
1.563294
1.569789
1.526747
1.577121
1.576519
1.594193
1.547516
1.518244
1.533404
1.517568
1.518840
1.433928
1.477340
1.501851
1.534041
1.495152
1.484310
1.536841
1.557810
1.500540
1.515288
1.524079
1.462110
1.443980
1.453703
1.581195
1.574223
1.586458
1.601917
1.611316
1.624299
1.614993
1.607437
1.622385
1.593501
1.612584
1.602475
1.599536
1.617244
1.618004
1.563492
1.463598
1.405374
1.355277
1.507388
1.526850
1.367504
1.410565
1.437901
1.515071
1.529885
1.524492
1.573637
1.590438
1.593382
1.565673
1.513009
1.405283
1.420521
1.468226
1.518340
1.580866
1.523635
1.578541
1.599955
1.572084
1.570381
1.567212
1.574931
1.535904
1.563331
1.543553
1.554048
1.558080
1.553959
1.555680
1.567802
1.570019
1.567443
1.550763
1.553093
1.506285
1.468865
1.388161
1.426178
1.288582
1.409511
1.587991
1.597700
1.589192
1.591174
1.607074
1.556238
1.582721
1.549006
1.569643
1.559874
1.560378
1.522743
1.519183
1.531713
1.544624
1.553566
1.558557
1.561035
1.563504
1.571026
1.544610
1.444274
1.564954
1.591497
1.591447
1.592979
1.619820
1.611573
1.602127
1.605827
1.622189
1.599569
1.609709
1.609510
1.599359
1.602328
1.593624
1.585388
1.578551
1.608797
1.598786
1.606413
1.614636
1.613057
1.586938
1.606817
1.606692
1.571909
1.543092
1.554033
1.540722
1.534519
1.456586
1.479270
1.521533
1.524385
1.507449
1.505746
1.554385
1.506488
1.520087
1.507125
1.509202
1.506469
1.489988
1.610005
1.609016
1.609636
1.592911
1.615537
1.608475
1.600960
1.589683
1.498807
1.512470
1.545543
1.537240
1.573280
1.570399
1.543345
1.533038
1.545052
1.555460
1.579661
1.550933
1.569902
1.549108
1.553577
1.527923
1.539978
1.547440
1.547143
1.553520
1.567416
1.570723
1.576732
1.558275
1.540323
1.520242
1.487513
1.432088
1.460924
1.406944
1.447366
1.468771
1.492120
1.472708
1.553822
1.495672
1.577530
1.565399
1.565140
1.559804
1.555124
1.552336
1.563047
1.554144
1.570069
1.571632
1.563246
1.541721
1.538405
1.533831
1.572039
1.596651
1.591705
1.560091
1.523884
1.516025
1.454578
1.400019
1.528353
1.550587
1.567701
1.566831
1.597888
1.576637
1.560603
1.536109
1.510167
1.476336
1.426036
1.496524
1.490326
1.540313
1.540140
1.536570
1.535806
1.550465
1.558931
1.563115
1.609383
1.606545
1.606339
1.610514
1.609399
1.492693
1.512009
1.535727
1.504069
1.467874
1.474474
1.496157
1.534847
1.513548
1.479989
1.488750
1.535728
1.528100
1.549751
1.537083
1.555849
1.557980
1.548482
1.543277
1.535674
1.540458
1.548138
1.553324
1.589340
1.549524
1.575998
1.570006
1.559632
1.538772
1.518361
1.512185
1.490207
1.468053
1.501919
1.498747
1.539640
1.513249
1.490464
1.494346
1.500851
1.532425
1.482369
1.537388
1.521803
1.511188
1.539731
1.515971
1.498517
1.518323
1.557341
1.529042
1.528537
1.536213
1.542321
1.563102
1.553901
1.527492
1.526761
1.523198
1.508564
1.541563
1.513372
1.507717
1.534852
1.472756
1.502285
1.148923
1.142876
1.273736
1.211955
1.090472
1.137354
1.508269
1.665765
0.880345
0.975797
1.212626
1.033010
1.584293
1.587079
1.579964
1.271034
1.175795
1.267423
1.040038
0.862879
1.135360
0.971127
1.440485
1.487247
1.481486
1.428513
1.593538
1.573478
1.557032
1.561951
1.563978
1.601280
1.601166
1.583718
1.576077
1.564396
1.188690
1.221708
1.189935
1.153741
1.227222
1.221535
1.195415
1.240411
1.241449
1.324697
1.318593
1.266611
1.296757
1.339345
1.402493
1.541781
1.552036
1.543614
1.503448
1.545246
1.503300
1.596385
1.567422
1.601586
1.528143
1.519475
1.584046
1.602141
1.591479
1.559732
1.539482
1.562843
1.618196
1.603984
1.585235
1.567697
1.501525
1.559541
1.546166
1.560365
1.546347
1.553946
1.428611
1.452925
1.469585
1.395881
1.405361
1.422065
1.513319
1.541657
1.523733
1.187106
1.500539
1.549929
0.947465
1.002413
0.900912
1.244852
1.109008
1.567288
1.556561
1.557494
1.524587
1.580425
1.557230
1.363402
0.980585
0.878741
1.011352
1.246332
0.924148
1.124364
1.234298
1.224111
1.228600
1.209165
1.227201
1.211044
1.080489
1.130710
1.238758
1.182622
1.186353
1.149784
1.208670
1.085626
1.177404
0.946129
1.046163
1.245247
0.994616
1.008537
1.053648
1.151112
1.086624
1.161168
0.971352
1.164353
1.102008
0.870899
0.801671
1.014254
0.946583
0.888093
0.923224
0.932721
0.913434
0.910028
0.867147
0.960716
1.026442
1.040147
1.013020
1.041002
0.930183
0.901148
0.922321
0.912530
0.997505
1.144205
1.245352
1.246273
1.234089
1.201418
1.162508
1.282355
1.296391
1.330920
1.349381
1.365464
1.379129
1.385398
1.382302
1.385752
1.382110
1.371102
1.360698
1.365029
1.351823
1.329131
1.317388
1.295131
1.204273
1.188436
1.258252
1.178912
1.129723
0.890452
1.169668
1.338075
1.353005
1.376918
1.384186
1.390905
1.386647
1.383991
1.376834
1.372258
1.372212
1.373508
1.373398
1.380667
1.387008
1.391591
1.395707
1.393860
1.380269
1.401787
1.326975
1.342386
1.311381
1.297834
1.243831
1.174379
1.227742
1.289452
1.157945
1.118364
1.232624
1.293059
1.342932
1.300955
1.293403
1.300336
1.263193
1.259017
1.288721
1.295392
1.286820
1.345334
1.287262
1.357520
1.352153
1.365441
1.352375
1.374127
1.360663
1.359073
1.341604
1.355499
1.342185
1.334424
1.332247
1.315951
1.327841
1.296820
1.320841
1.284411
1.305712
1.271716
1.247912
1.267772
1.275438
1.303794
1.298239
1.217866
1.260064
1.168771
1.162627
1.276120
1.234902
1.216389
1.231962
1.260244
1.217354
1.321425
1.253764
1.293068
1.300768
1.311770
1.332150
1.310772
1.318399
1.097184
1.115545
1.079398
1.002983
0.797299
1.138725
1.095877
1.114546
1.170366
1.136717
1.281720
1.006708
1.010010
1.153889
1.182725
1.219216
1.152619
1.278635
1.122246
1.124265
0.955110
0.831725
1.212850
1.299543
1.196563
1.222875
1.332275
1.301802
1.319364
1.251599
1.062565
1.020651
0.893325
1.255687
1.001885
1.144129
1.028084
0.827815
1.171305
1.181217
1.169975
1.236008
1.311830
1.164228
1.067035
1.004189
1.253774
1.302706
1.280316
1.291236
1.303765
1.218304
1.233301
1.210937
1.177253
0.993865
1.197767
1.033345
1.027348
1.233676
1.006153
1.038964
1.111221
0.879853
0.792001
0.778023
0.786870
0.789805
0.913938
0.823429
0.892514
1.013570
1.032316
1.041443
0.882274
0.887906
0.925082
0.880620
0.895671
0.880773
0.922540
0.872220
0.879657
0.858750
0.876841
1.029640
1.181343
1.217953
1.212524
1.222431
1.226926
1.219779
1.265488
1.253367
1.292640
1.263790
1.173313
1.066487
1.231163
1.395476
1.379183
1.326293
1.291003
1.236903
1.145390
0.963577
0.850341
1.132642
1.142410
0.999067
1.047625
1.169536
1.262930
1.293060
1.328936
1.329386
1.313510
1.284774
1.285834
1.284532
1.311242
1.349256
1.342637
1.356052
1.359246
1.400285
1.376709
1.379063
1.388138
1.390957
1.367841
1.360911
1.350020
1.357294
1.336403
1.348028
1.329018
1.337685
1.305637
1.303377
1.306060
1.279440
1.294235
1.297239
1.303289
1.312350
1.207976
1.248405
1.191027
1.190629
1.287669
1.234415
1.286546
1.271543
1.279808
1.308144
1.310633
1.310401
1.317824
1.331702
1.337591
1.380982
1.392253
1.047420
1.143917
1.111086
1.099620
1.087257
1.170731
1.133442
0.889906
1.012448
0.992721
1.345221
1.262486
1.227037
1.118412
1.190230
0.829584
0.861002
0.941020
1.270656
1.283692
1.177158
1.300166
1.383565
1.322512
1.330275
1.330537
1.299081
1.206323
1.251941
0.837456
1.128474
1.243377
1.221456
1.251286
1.188710
1.146731
1.053500
1.033261
0.947244
0.998961
1.311218
1.289823
1.169009
1.128501
1.210766
0.893132
0.901464
1.046249
1.177798
1.375904
1.366918
1.392104
1.358156
1.362084
1.322498
1.292338
1.343572
1.389450
1.337181
1.241947
1.262305
1.291778
1.322019
1.348781
1.340011
1.328913
1.332676
1.323940
1.312985
1.317264
1.326133
1.316442
1.333923
1.340832
1.350849
1.359758
1.369324
1.377535
1.369070
1.382619
1.346716
1.349347
1.354249
1.340459
1.325989
1.288396
1.266392
1.280279
1.298921
1.210271
1.114871
1.320515
1.285434
1.282594
1.303086
1.296229
1.312835
1.299079
1.301979
1.307415
1.338899
1.167452
1.250578
1.160140
1.069006
1.024141
1.002421
1.182196
1.163364
0.885392
0.824958
0.847226
0.783198
0.843030
0.863944
0.829337
0.880781
0.954160
1.036641
1.053746
0.898280
0.974932
1.104450
0.943581
0.886654
0.859648
0.830873
0.828050
0.921576
1.146490
1.157112
1.236578
1.223185
1.266203
1.256373
1.244649
1.238136
1.244448
1.248810
1.307373
1.209502
1.120325
1.088167
1.351426
1.347318
1.351760
1.365499
1.355431
1.347431
1.342771
1.312680
1.331067
1.322079
1.299188
1.286956
1.263396
1.277255
1.237401
1.295365
1.067470
1.114654
1.040476
0.963626
1.048600
1.136266
1.024919
1.237412
1.188669
1.193451
1.220207
1.232881
1.290147
1.224928
1.145638
1.047448
1.020877
1.006389
1.316367
1.024004
1.093458
1.145402
1.205217
1.243858
1.326358
1.313451
1.318073
1.277431
1.284613
1.273588
1.316510
1.342442
1.360432
1.357807
1.370940
1.389247
1.382157
1.385299
1.387123
1.404520
1.397909
1.394494
1.382185
1.388562
1.385533
1.377498
1.363064
1.373930
1.352729
1.352004
1.350895
1.339234
1.331910
1.324956
1.332592
1.293158
1.286700
1.285213
1.292877
1.316540
1.256344
1.200481
1.178985
1.200812
1.238989
1.247749
1.287516
1.280804
1.303267
1.314003
1.323084
1.316577
1.336154
1.239247
1.257029
1.217614
1.157285
1.085972
1.029743
1.013525
1.097399
1.337028
1.290768
1.232811
1.119829
1.051723
0.868742
0.909294
1.035401
1.353793
1.382160
1.388037
1.370969
1.351251
1.358115
1.346839
1.370128
1.326240
1.290765
1.336463
1.138177
1.324741
1.260108
1.308380
1.334334
1.313231
1.292137
1.318383
1.289404
1.282820
1.280729
1.305803
1.286057
1.218395
1.159470
1.310288
1.391097
1.263466
1.259177
1.126824
1.077711
1.194356
1.271185
1.263620
1.260430
1.128056
1.066381
1.006467
1.204645
1.147611
0.926499
0.879667
0.945783
1.298516
1.292955
1.012341
1.009189
1.069357
1.185532
1.219831
1.267564
1.244830
1.184181
1.122138
1.089838
1.132595
1.183681
1.239053
0.930797
0.897408
0.896373
0.933299
0.900759
0.944169
0.991843
1.079294
1.110736
1.101705
1.069452
0.987292
0.945710
0.922943
0.897145
0.865594
0.923448
0.996985
1.109321
1.196933
1.151114
1.275579
1.252298
1.250495
1.251997
1.238385
1.257798
1.249216
1.267428
1.319986
1.374826
1.266640
1.154414
1.110491
1.056103
0.865333
1.168470
1.198006
1.145199
1.198292
1.247154
1.252336
1.292995
1.308748
1.278301
1.270305
1.288963
1.311468
1.346437
1.358340
1.362234
1.369217
1.385586
1.395311
1.380571
1.394857
1.398728
1.404440
1.390728
1.389275
1.387030
1.411878
1.388074
1.393710
1.389560
1.389735
1.379240
1.366323
1.356009
1.359405
1.345630
1.331030
1.332198
1.327652
1.319819
1.327732
1.304980
1.284118
1.306652
1.224043
1.250490
1.187493
1.119271
1.188998
1.258218
1.265120
1.286803
1.317549
1.340167
1.326666
1.333178
1.264331
1.225181
1.282108
1.292149
1.270789
1.302569
1.342853
1.352997
1.324502
1.336533
1.283093
1.314026
1.320513
1.270746
1.259141
1.270358
1.243643
1.243973
1.231731
1.062719
1.121716
1.091074
0.923506
0.982754
1.002767
1.175968
1.207812
1.170708
1.110429
1.210806
1.277388
1.243148
1.185247
1.066096
1.010406
1.123655
1.222552
1.337797
1.325112
1.211062
1.036307
0.917504
0.955838
1.075131
1.138896
1.137029
1.216346
1.241435
1.359270
1.372089
1.375187
1.368203
1.361234
1.356941
1.361452
1.335684
1.342549
1.308818
1.252327
1.242442
1.309230
1.288789
1.176979
1.339952
1.361426
1.338704
1.281312
1.222373
1.185975
1.220377
1.310577
1.304399
1.260297
1.101817
1.065365
1.034225
1.230975
1.310210
1.155290
1.173392
1.218933
1.268137
1.291001
1.324883
1.315067
1.316153
1.306228
1.274340
1.267640
1.273797
1.320382
1.339250
1.341170
1.363437
1.361215
1.377637
1.396812
1.389348
1.386470
1.396311
1.389989
1.393597
1.393860
1.392439
1.392512
1.295383
1.276178
1.213873
1.131779
1.234860
1.279325
1.288776
1.256269
1.302028
1.365200
1.340307
1.309733
1.296507
1.267070
1.254275
1.258976
1.267505
1.276177
1.303472
1.334537
1.314468
1.344457
1.315119
1.341207
1.331442
1.313591
1.314169
1.351950
1.307104
1.263315
1.217050
1.169339
1.097303
1.168679
1.132984
1.052399
1.009298
0.992093
1.166711
1.246057
1.247083
1.240393
1.244327
1.249298
1.332159
1.368831
1.361592
1.368534
1.359493
1.284342
1.123300
1.008249
1.054760
1.140568
1.139034
1.198889
1.231260
1.240041
1.219084
1.183249
1.144942
1.206105
1.128678
0.976908
0.908766
0.919339
0.967143
0.948266
0.980935
1.013068
1.050107
1.089449
1.096418
1.394789
1.388443
1.380221
1.379966
1.382818
1.362264
1.367003
1.357740
1.338948
1.336738
1.320678
1.319469
1.320201
1.288219
1.265038
1.246130
1.239719
1.245165
1.182824
1.121207
1.177621
1.240303
1.252818
1.287339
1.315246
1.342452
0.992347
0.945622
0.934010
0.890679
0.832180
0.845606
1.028536
1.122261
1.319129
1.337321
1.332343
1.320950
1.324411
1.312643
1.261255
1.236109
1.275189
1.266771
1.284006
1.250362
1.331704
1.312754
1.338633
1.328773
1.326484
1.300950
1.374667
1.382805
1.297369
1.282138
1.238649
1.111422
1.119302
1.160435
1.104257
1.114315
1.013962
1.068366
1.176620
1.248776
1.283603
1.277139
1.216343
1.128917
1.154078
1.242469
1.300132
1.321243
1.254357
1.079698
0.962179
0.998566
1.006720
1.051518
1.111511
1.217746
1.180576
1.258400
1.209312
1.109552
1.319430
1.254221
1.289791
1.235351
1.255121
1.297307
1.334844
1.309198
1.257070
1.296195
1.326571
1.299081
1.329933
1.341693
1.340889
1.327742
1.313862
1.306974
1.295354
1.263011
1.273590
1.326076
1.322721
1.334620
1.353087
1.367182
1.370994
1.388257
1.389347
1.398680
1.391875
1.393234
1.391756
1.393654
1.394749
1.402322
1.117654
1.054110
1.197842
1.238243
1.257734
1.250087
1.294418
1.355067
1.314142
1.325566
1.359613
1.374106
1.375785
1.365539
1.368132
1.338875
1.317656
1.336756
1.270967
1.398195
1.390903
1.388825
1.389802
1.366466
1.367986
1.357780
1.347829
1.334580
1.342308
1.329910
1.334685
1.333019
1.324739
1.305799
1.286035
1.269455
1.270744
1.237354
1.223337
1.239893
1.186189
1.151338
1.186379
1.238663
1.246252
1.274407
1.021802
0.970559
0.929521
0.906183
0.866040
0.881220
1.262316
1.268179
1.429703
1.403254
1.390364
1.376841
1.349277
1.341900
1.328656
1.270254
1.268776
1.249795
1.259216
1.268945
1.235756
1.122639
1.098172
1.155447
1.184011
1.279352
1.273140
1.294613
1.282966
1.351191
1.355216
1.364424
1.360119
1.356415
1.365416
1.339391
1.348243
1.335035
1.320934
1.301214
1.298836
1.272191
1.135576
1.203983
1.082656
1.116103
1.118221
1.163435
1.167846
1.173962
1.229746
1.239917
1.216984
1.157829
1.128521
1.122157
1.116481
1.042543
1.004751
0.973155
0.958786
1.001520
0.966473
0.984301
1.009431
1.022802
1.215805
1.292556
1.291424
1.335712
1.330810
1.391137
1.320527
1.265919
1.186452
1.134870
1.155346
1.115450
1.097940
1.320337
1.356143
1.360440
1.360516
1.359922
1.317478
1.296694
1.270280
1.279109
1.308800
1.320609
1.328622
1.344778
1.360550
1.371524
1.373726
1.385504
1.385236
1.405749
1.402005
1.400688
1.393674
1.397941
1.393802
1.399761
1.392035
1.388741
1.381684
1.383835
1.362482
1.362074
1.351779
1.351616
1.326479
1.308880
1.286468
1.275631
1.307538
1.305145
1.339890
1.334977
1.373209
1.313363
1.299924
1.337894
1.342591
1.309575
1.295862
1.315730
1.288845
1.360558
1.358672
1.354878
1.332172
1.331080
1.313155
1.290370
1.293870
1.278403
1.253208
1.213652
1.197941
1.211709
1.207653
1.196389
1.269963
1.292215
1.260277
1.140934
1.040326
1.151662
1.243119
1.279003
1.305921
1.314983
1.184083
1.188602
1.232673
1.287569
1.312015
1.268498
1.163793
1.012746
1.376091
1.335813
1.351592
1.333673
1.339828
1.324507
1.222747
0.979649
0.983157
0.963343
0.956141
0.988201
0.971029
1.369968
1.298005
1.340979
1.345393
0.930102
0.903886
0.856508
0.894075
1.160674
1.273252
1.346602
1.409925
1.407307
1.400363
1.389601
1.368446
1.356496
1.353002
1.306204
1.265344
1.220940
1.226838
1.261431
1.239985
1.345071
1.366444
1.352583
1.352496
1.340937
1.328464
1.328042
1.350241
1.321912
1.291371
1.175698
1.134647
1.198002
1.180479
1.281163
1.274469
1.236152
1.218385
1.167840
1.195298
1.288425
1.305194
1.393023
1.377842
1.381939
1.393334
1.392833
1.396825
1.391996
1.402855
1.392769
1.394072
1.387574
1.389065
1.377012
1.379919
1.364274
1.360534
1.356126
1.358835
1.351475
1.357947
1.382851
1.377971
1.390687
1.372576
1.383190
1.375362
1.384523
1.392050
1.388996
1.396902
1.391412
1.384192
1.393840
1.378892
1.373205
1.386838
1.387596
1.351339
1.371772
1.358976
1.351633
1.351226
1.348923
1.342496
1.347375
1.333155
1.331274
1.281039
1.278305
1.254229
1.217713
1.190457
1.184539
1.140547
1.149337
1.193367
1.298974
1.229948
1.230614
1.247397
1.238351
1.276390
1.287277
1.241717
1.231020
1.234952
1.175392
1.108115
1.105836
1.134386
1.135510
1.312460
1.290583
1.280873
1.239169
1.298329
1.291804
1.302521
1.276140
1.252382
1.247193
1.188896
1.136125
1.095907
1.102426
1.092318
1.091843
1.009200
0.966683
1.069007
1.137421
1.190145
1.245703
1.280264
1.311327
1.340448
1.347549
0.932743
0.885971
0.861169
0.917231
1.100969
1.262402
1.315596
1.386194
1.402417
1.394377
1.388394
1.384049
1.374943
1.366633
1.359482
1.348085
1.313070
1.247833
1.220974
1.201453
1.209037
1.199385
1.367063
1.225165
1.279711
1.307995
1.284992
1.243369
1.126572
1.166377
1.201873
1.242761
0.951152
0.929441
0.925473
1.333592
1.273369
1.240578
1.187448
1.366640
1.389743
1.365151
1.374197
1.355002
1.373357
1.356078
1.355626
1.352868
1.349012
1.353837
1.343648
1.353142
1.333469
1.174732
1.251119
1.229817
1.215017
1.231305
1.144977
1.205179
1.145579
1.128062
1.192460
1.240406
1.276333
1.300853
1.326632
1.358598
1.362653
1.357089
1.349043
1.349033
1.344938
1.332786
1.321335
0.902960
0.890296
0.956278
1.074373
1.209434
1.299891
1.370865
1.388388
1.398382
1.397710
1.388457
1.378707
1.377652
1.370277
1.376041
1.353322
1.357438
1.309921
1.275435
1.228040
1.220339
1.214308
1.302926
1.321925
1.340983
1.352238
1.362499
1.305037
1.260007
1.240134
1.197425
1.196944
1.135267
1.158203
1.226822
1.028862
0.928225
1.272788
1.286902
1.294151
1.284016
1.195840
1.181426
1.236852
1.266963
1.290132
1.262651
0.911900
1.276847
1.280883
1.172342
1.157789
1.170751
1.195602
1.211723
1.131559
1.197566
1.138733
1.223499
1.250445
1.280331
1.307373
1.339869
1.359804
1.349197
1.345777
1.360194
1.268465
1.318271
1.299090
1.354912
1.347405
1.387891
1.385056
1.350313
1.360253
1.363754
1.368942
1.377370
1.390643
1.386724
1.391980
1.393295
1.382872
1.352390
1.360321
1.347090
1.354482
1.347854
1.326052
1.270651
1.251902
1.233151
1.164769
0.949197
0.990555
1.074963
1.197794
1.299230
1.355684
1.364752
1.366106
1.373119
1.375886
1.365175
1.371779
1.375003
1.374913
1.358353
1.371704
1.357954
1.271543
1.289135
1.356553
1.346962
1.343741
1.337255
1.321913
1.297929
1.294244
1.293215
1.317996
1.302079
1.264898
1.258699
1.306922
0.994391
1.140291
1.150649
1.143312
1.110180
1.139720
1.157861
1.307228
1.338650
1.369443
1.346004
1.355406
1.320238
1.343231
1.347162
1.358710
1.362511
1.353918
1.328620
1.350652
1.333906
1.378091
1.382869
1.385992
1.389094
1.389479
1.377880
1.379917
1.382551
1.364883
1.369293
1.356575
1.370724
1.360746
1.351626
1.356459
1.299250
1.321709
1.351433
1.357956
1.351093
1.352407
1.296204
1.267793
1.215602
1.099160
1.298694
1.286401
1.316147
1.331154
1.331141
1.326510
1.294414
1.271472
1.223555
1.199681
1.126781
1.044414
1.115586
1.196258
1.364856
1.364902
1.362531
1.366140
1.370623
1.296601
1.330790
1.297680
1.317315
1.301248
1.324579
1.343573
1.337762
1.318068
1.324497
1.321983
1.351430
1.353818
1.357659
1.336383
1.308951
1.274706
1.252180
1.213269
1.171160
1.117686
1.087534
1.359132
1.344323
1.348108
1.336962
1.333533
1.326730
1.349272
1.348022
1.376430
1.374749
1.362429
1.356426
1.332532
1.332961
1.302325
1.276947
1.241594
1.187852
1.320306
1.342841
1.358889
1.138350
1.360161
1.373645
1.383568
1.364599
1.367446
1.395358
1.348932
1.390072
1.320846
1.343407
1.348403
1.374007
1.330035
1.320232
1.244457
1.325780
1.384750
1.359527
1.377773
1.380555
1.389548
1.372685
1.382494
1.364339
1.373633
1.355828
1.361247
1.347033
1.358932
1.353552
1.351501
1.340831
1.323331
1.340010
1.361669
1.346496
1.372248
1.371330
1.345876
1.385093
1.368970
1.373929
1.373879
1.381158
1.369658
1.366140
1.371785
1.357749
1.268208
1.270545
1.365274
1.313574
1.093357
1.032902
1.106969
1.107439
1.115912
1.067525
1.176015
1.219209
1.137547
1.183292
1.151372
1.209030
1.132940
1.360745
1.367563
1.315982
1.353085
1.264656
1.268661
1.214306
1.357382
1.347945
1.350241
1.272018
1.301847
1.317608
1.093643
1.100690
1.074602
1.086091
1.348785
1.364684
1.331754
1.348923
1.347716
1.334797
1.334544
1.336438
1.278228
1.342207
1.347293
1.360466
1.239038
1.223480
1.166340
1.241814
1.230201
1.165415
1.281739
1.355455
1.354031
1.363936
1.305165
1.332022
1.324833
1.266857
1.265460
1.313284
1.326447
1.313118
1.365194
1.347673
1.345603
1.346423
1.317666
1.328690
1.342352
1.151317
1.172729
1.067579
0.972119
1.100021
1.237222
0.901174
1.245466
1.270329
1.162248
1.321536
1.194266
1.220906
1.297977
1.281597
1.315815
1.323916
1.123340
1.100268
1.150182
0.855263
1.127007
1.315608
1.273690
1.125491
1.330710
1.338865
1.366497
1.371517
1.382893
1.401040
1.403220
1.395886
1.407047
1.380493
1.371565
1.368865
1.366576
1.354387
1.330490
1.349584
1.256268
1.206591
1.303224
1.357647
0.802895
0.813453
0.835083
1.170658
1.286927
1.253065
1.334179
1.304185
1.243997
1.298725
1.190075
1.156495
1.248563
1.186648
1.091193
1.078340
1.175675
1.140746
1.003707
0.915236
1.015793
0.849656
0.929901
0.949313
0.939269
0.847971
1.047316
0.959538
1.156285
1.089018
1.217128
1.328822
1.177758
1.276754
1.247376
1.248200
1.192796
1.183414
1.143415
1.170423
1.213462
1.325214
1.234810
1.229396
1.281967
1.241388
1.181635
1.068377
0.977504
0.843920
0.857739
1.351678
1.309814
1.325695
1.308119
1.287441
1.303392
1.324124
1.329838
1.356517
1.314279
1.368363
1.302432
1.378192
1.358174
1.319028
1.380525
1.364533
1.308838
1.347308
1.321101
1.324978
1.288293
1.291807
1.293631
1.292866
1.297596
1.303043
1.307305
1.304108
1.334491
1.296961
1.385481
1.357492
1.308835
1.339192
1.369043
1.296953
1.417668
1.316696
1.303230
1.336615
1.316277
1.315701
1.305306
1.321363
1.291862
1.302066
0.875593
0.836260
1.089274
1.139923
1.214078
1.089776
1.137562
1.178445
1.159980
1.225106
1.316867
1.324799
1.345626
1.378429
0.860445
1.246124
1.280438
1.294932
1.337354
1.349680
1.304616
1.250827
1.180525
1.118554
1.148094
1.142081
1.115728
1.253593
1.359691
1.242678
1.106436
1.302990
1.258366
1.115643
1.189162
1.307475
1.192800
1.200247
1.176285
1.060807
1.335598
1.288761
1.282008
1.348818
0.954195
0.758650
1.158831
1.234865
1.311398
1.332547
1.170753
1.173157
1.099467
1.131832
1.209168
1.160918
1.223595
1.212626
1.191121
1.204467
1.190273
0.886530
0.936101
0.899010
0.826353
0.785982
0.787482
0.860723
0.986434
1.192343
1.278526
1.290243
1.295856
1.276704
1.320259
1.312023
1.272031
1.230380
1.159451
1.138044
1.227192
1.193063
1.281292
1.310225
1.293502
1.289538
1.218972
1.108144
0.864576
0.795060
1.324951
1.261108
1.071562
1.037504
0.784769
0.785338
1.377465
1.368836
1.340054
1.329566
1.349556
1.340889
1.362045
1.360428
1.375042
1.375403
1.376810
1.391015
1.386673
1.379185
1.401715
1.399014
1.386243
1.347661
1.365681
1.351817
1.338643
1.326383
1.327775
1.333101
1.332901
1.344718
1.342898
1.332721
1.347317
1.334933
1.361640
1.411791
1.336959
1.376202
1.381424
1.336017
1.400804
1.330032
1.346259
1.367508
1.370584
1.389025
1.431221
1.360909
1.383965
1.367341
1.355483
1.392082
1.397434
1.400591
1.412573
1.408292
1.400620
1.403774
1.372071
1.370066
1.361773
1.338776
1.325238
1.227534
1.216966
1.259267
1.379135
1.383146
0.760362
1.062985
1.075383
1.161640
1.192424
1.155314
1.227647
1.229734
1.279536
1.332088
1.360658
1.387462
1.312809
1.206200
1.127754
0.949665
1.133165
1.252150
1.222267
1.250029
1.169060
1.037116
1.149942
1.187925
1.286005
1.333653
1.428564
1.403003
1.268288
1.144174
1.088396
1.188696
0.860230
0.831552
0.859872
1.158594
1.299225
1.368825
1.419669
1.345980
1.351844
1.295718
1.217998
1.219402
1.201772
1.176144
1.070680
1.133911
1.203105
1.264711
1.197738
0.806905
0.887675
0.824322
0.870286
0.979973
1.186561
1.315699
1.332649
1.319972
1.345553
1.313751
1.284167
1.232167
1.141784
1.106042
1.173320
1.185003
1.227045
1.356388
1.351085
1.397929
1.332690
1.286609
1.145809
0.977943
1.238524
1.180158
1.224719
1.265586
1.193834
1.238765
1.273899
1.290953
1.332521
1.345345
1.380642
1.217437
1.240540
1.236216
1.342533
1.297498
1.318426
1.296718
1.311346
1.180788
1.170880
1.273416
1.236687
1.110174
1.391484
1.387906
1.403826
1.417202
1.409657
1.420228
1.408996
1.422296
1.387895
1.379234
1.369097
1.371889
1.305062
1.343829
1.308559
1.405363
1.402182
1.262732
1.342153
1.345339
1.355530
1.363227
1.373771
1.400191
1.406700
1.423181
1.418638
1.394487
1.415623
1.395326
1.419336
1.391347
1.388030
1.353667
1.376673
1.339114
1.355657
1.346348
1.348637
1.351755
1.354565
1.367769
1.365786
1.353547
1.356343
1.344639
1.375247
1.370449
1.373042
1.392110
1.405968
1.389963
1.398729
1.369109
1.366999
1.409671
1.373322
1.371267
1.401129
1.375388
0.982363
1.004579
1.362408
1.393158
1.373952
1.235317
1.173162
1.237279
1.259987
1.199319
1.242244
1.249852
1.365049
1.417954
1.389335
1.271504
1.383045
1.263229
1.214234
1.368354
1.283317
0.951474
0.975684
0.946296
1.157027
1.306681
1.393981
1.390835
1.387945
1.349122
1.331185
1.271381
1.097582
1.158767
1.271082
1.220372
1.171388
1.126660
1.117271
1.206858
1.174083
1.110960
0.941761
0.929541
0.929858
0.960637
1.116845
1.185034
1.329795
1.330991
1.332974
1.314880
1.308426
1.264780
1.225435
1.159856
1.129180
1.239978
1.287990
1.417211
1.372871
1.381049
1.314792
1.198399
1.094003
1.217298
1.236783
1.242612
1.274241
1.289629
1.254491
1.282351
1.298342
1.310746
1.310418
1.405260
1.409624
1.401262
1.398464
1.405841
1.412360
1.411661
1.401239
1.355754
1.395749
1.333928
1.363792
1.340753
1.270312
1.343070
1.397227
1.377694
1.371493
1.207243
1.251324
1.257407
1.336613
1.337010
1.285332
1.028978
1.197306
1.156949
1.090480
1.319765
1.324893
1.327843
1.348830
1.374404
1.369881
1.391625
1.406486
1.430448
1.407530
1.402887
1.407530
1.423091
1.389457
1.401635
1.377646
1.365758
1.367137
1.353223
1.359133
1.359572
1.363279
1.364394
1.367689
1.382485
1.383861
1.365591
1.340094
1.355335
1.371486
1.384337
1.397414
1.356146
1.419727
1.400062
1.402155
1.356640
1.384520
1.393010
1.384361
1.376848
1.389135
1.085416
1.234223
1.390977
1.289930
1.325281
1.289264
1.318177
1.297983
1.225405
1.278381
1.320423
1.369455
1.396509
1.385615
1.346064
1.372465
1.392983
1.335501
1.355760
1.327974
1.239800
1.286539
1.064602
1.189326
1.117048
1.263244
1.350595
1.358772
1.392466
1.334221
1.379143
1.365445
1.305858
1.303481
1.278395
1.307181
1.108681
1.167959
1.312627
1.245011
1.228457
1.326818
1.385371
1.389269
1.385759
1.361022
1.314166
1.244944
1.143446
1.001462
0.878521
0.876803
1.159490
1.113835
1.059283
1.064429
1.124220
1.087900
1.051691
0.997498
0.952530
1.000403
1.147119
1.201182
1.294277
1.327787
1.338533
1.315178
1.332215
1.336061
1.276840
1.213617
1.167476
1.173779
1.247876
1.309385
1.367300
1.388645
1.408416
1.398985
1.390127
1.371464
1.336518
1.285183
1.226411
1.237804
1.282915
1.297434
1.302293
1.306470
1.307648
1.299323
1.299530
1.308851
1.407516
1.389640
1.385301
1.384045
1.376438
1.349002
1.338635
1.348353
1.322045
1.315750
1.317309
1.354268
1.376363
1.366014
1.322885
1.279982
1.276530
1.264597
1.316614
1.335900
1.337882
1.329662
1.306832
1.281193
1.267708
1.240905
1.212812
1.373122
1.355368
1.375262
1.387470
1.405341
1.405790
1.432584
1.410005
1.379297
1.417724
1.397376
1.421787
1.370510
1.377234
1.375964
1.354490
1.346547
1.365886
1.372878
1.364070
1.365169
1.371641
1.382290
1.392638
1.376574
1.352567
1.342846
1.351039
1.379595
1.380198
1.409926
1.409252
1.407745
1.387725
1.383593
1.410682
1.392186
1.403393
1.375893
1.279385
1.300689
1.318848
1.351294
0.985460
0.969057
1.031376
1.142224
1.236077
1.295311
1.323760
1.337282
1.337677
1.333076
1.329342
1.294401
1.251007
1.221409
1.201060
1.239045
1.259327
1.301159
1.340579
1.363876
1.395704
1.400400
1.402661
1.398324
1.371271
1.348592
1.298627
1.355742
1.380080
1.376088
1.357031
1.332371
1.247193
1.178125
1.250002
1.235677
1.332255
1.202599
1.187268
1.182963
1.223161
1.265035
1.370499
1.402492
1.393514
1.385964
1.358760
1.319794
1.251097
1.163257
1.037851
0.897415
0.831613
1.349825
1.397808
1.321432
1.299135
1.316565
1.333370
1.333934
1.349146
1.350714
1.366443
1.387480
1.382642
1.381960
1.386246
1.371772
1.350400
1.346597
1.335796
1.347405
1.344414
1.370172
1.354971
1.347277
1.329043
1.317654
1.281687
1.272257
1.315100
1.343956
1.325648
1.059947
1.011893
1.012585
1.022207
1.051137
1.376472
1.383911
1.401877
1.411469
1.407847
1.420380
1.393157
1.406511
1.414238
1.410478
1.389118
1.387994
1.353558
1.355223
1.352273
1.335578
1.369092
1.362247
1.344865
1.337378
1.384300
1.400866
1.348949
1.346686
1.351446
1.342726
1.379692
1.379651
1.386692
1.420332
1.423443
1.365995
1.380610
1.418029
1.396589
1.382854
1.338663
1.316870
1.314279
1.323532
1.395863
1.396608
1.358841
1.357658
1.344142
1.350672
1.336862
1.333477
1.339137
1.340641
1.341513
1.327877
1.316086
1.294911
1.294456
1.289016
1.337723
1.016365
1.057917
1.223574
1.337360
1.326583
1.305019
1.267119
1.198734
1.193533
1.203751
1.227002
1.275229
1.305835
1.329318
1.347402
1.364163
1.396768
1.405801
1.396847
1.387012
1.369364
1.370832
1.293716
1.334053
1.337919
1.305827
1.331893
1.058978
0.999765
1.046231
1.404736
1.413794
1.387770
1.382621
1.392145
1.354698
1.377098
1.345363
1.282702
1.245891
1.091778
1.115067
1.179279
1.282425
1.286193
1.244502
1.254652
1.302971
1.352059
1.400647
1.407930
1.377589
1.380981
1.347876
1.308877
1.298544
1.237274
1.187510
1.124237
1.142281
1.292145
1.366940
1.399532
1.398790
1.402519
1.419007
1.408918
1.389164
1.401161
1.399593
1.418324
1.384402
1.380421
1.349731
1.357021
1.331754
1.350798
1.310803
1.325826
1.342510
1.354048
1.337046
1.335909
1.326709
1.354415
1.353831
1.342679
1.365434
1.391785
1.382729
1.416802
1.422593
1.377425
1.385395
1.408298
1.397470
1.348683
1.331823
1.337592
1.332105
1.370616
1.316811
1.346093
1.307641
1.304376
1.271262
1.249296
1.212866
1.195822
1.225699
1.242364
1.271676
1.288761
1.316231
1.333708
1.354842
1.359487
1.370847
1.388470
1.392177
1.400882
1.396130
1.379161
1.365783
1.368351
1.367121
1.370941
1.371199
1.315476
1.355259
1.405578
1.403629
1.389656
1.390233
1.367666
1.364663
1.349714
1.267726
1.233218
1.284595
1.359673
1.355836
1.355371
1.388559
0.965273
1.188720
1.346956
1.360321
1.270274
1.211549
1.336678
1.326832
1.302242
1.343555
1.378441
1.396860
1.374295
1.360075
1.350551
1.317315
1.385165
1.396903
1.418325
1.421218
1.397603
1.404493
1.408214
1.429549
1.371336
1.376157
1.343100
1.362726
1.336861
1.343711
1.293239
1.336830
1.348101
1.344129
1.325810
1.320463
1.307860
1.390730
1.335197
1.341668
1.342984
1.390763
1.381989
1.430842
1.407521
1.394908
1.378606
1.403450
1.382144
1.381051
1.375449
1.375137
1.380137
1.385646
1.392442
1.380367
1.357155
1.339255
1.337476
1.332027
1.370364
1.325590
1.273846
1.254086
1.243806
1.248884
1.306102
1.304271
1.222383
1.223085
1.251312
1.270268
1.288427
1.314837
1.330774
1.352278
1.355189
1.371430
1.370674
1.378327
1.387275
1.396120
1.393137
1.398917
1.386317
1.393266
1.399149
1.384837
1.380091
1.215190
1.247362
1.399074
1.408381
1.406679
1.394942
1.406429
1.413588
1.429748
1.376725
1.374066
1.340926
1.363417
1.356479
1.380124
1.313050
1.312791
1.354436
1.331122
1.301793
1.347397
1.380639
1.387221
1.339631
1.331179
1.339451
1.370428
1.388940
1.416828
1.420437
1.405801
1.383835
1.386899
1.389987
1.377561
1.358232
1.361395
1.350695
1.345495
1.340832
1.352788
1.349663
1.357330
1.286001
1.284835
1.297993
1.328921
1.337506
1.373315
1.397508
1.394640
1.359336
1.381329
1.391239
1.385684
1.398706
1.389306
1.400195
1.390836
1.383058
1.388600
1.382992
1.388227
1.388808
1.393670
1.379419
1.362882
1.379520
1.379093
1.381469
1.390239
1.405582
1.397978
1.391350
1.392229
1.374414
1.323658
1.340179
1.002764
1.295991
1.352282
1.347801
1.348619
1.303366
1.349111
1.058790
1.194705
1.324653
1.285992
1.317028
1.348854
1.343237
1.351574
1.358492
1.377711
1.384581
1.388350
1.410742
1.391436
1.397324
1.410505
1.420853
1.375669
1.364349
1.344173
1.346587
1.314933
1.370906
1.347135
1.328141
1.344583
1.322416
1.281163
1.378704
1.416169
1.339244
1.309886
1.358022
1.343172
1.367540
1.400779
1.396368
1.417082
1.391275
1.369920
1.388742
1.379144
1.317681
1.390773
1.404701
1.400918
1.401487
1.398421
1.402889
1.365106
1.349448
1.348446
1.326641
1.292123
1.297273
1.303740
1.357498
1.363236
1.350087
1.359120
1.406566
1.392755
1.267481
1.265303
1.323016
1.344940
1.361335
1.404934
1.401684
1.418024
1.395920
1.388630
1.384516
1.413080
1.389496
1.384173
1.391356
1.302746
1.355222
1.402191
1.400031
1.394451
1.388009
1.368673
1.315156
1.157449
1.110312
1.273336
1.350636
1.393116
1.386217
1.370563
1.371446
1.371607
1.400251
1.381396
1.392968
1.382909
1.399427
1.388758
1.373962
1.348914
1.351101
1.175301
1.262296
1.213943
1.312291
1.356995
1.354318
1.372198
1.402418
1.397501
1.408264
1.371193
1.407263
1.393550
1.372383
1.388921
1.235444
1.261942
1.193312
1.244957
1.294015
1.326430
1.353223
1.375378
1.370261
1.367963
1.241950
1.214163
1.340742
1.323481
1.345921
1.361581
1.395350
1.339036
1.338387
1.359653
1.376541
1.384865
1.389554
1.351279
1.354150
1.344202
1.413219
1.379448
1.394780
1.347540
1.299568
1.343104
1.384973
1.380767
1.388353
1.414854
1.397318
1.401269
1.400470
0.882291
0.994212
1.147864
1.041407
1.412696
1.392502
1.391406
1.410250
1.400090
1.336380
1.346561
1.337491
1.233657
1.247121
1.395011
1.372735
1.371898
1.364748
1.211450
1.332381
1.367971
1.372048
1.382377
1.395352
1.393648
1.178597
1.173287
1.324942
1.339617
SCALARS V33_SP5(MPa) float 1
LOOKUP_TABLE default
0.683740
0.669906
0.741662
0.836103
0.839431
1.174960
1.371582
1.339750
1.306673
1.315307
1.306793
1.031041
0.914776
0.844440
0.996947
0.957555
0.979870
1.107739
1.183481
1.209772
1.181021
0.896374
0.767992
0.944549
1.128664
1.156781
0.758635
0.671640
0.770944
0.755201
1.059772
0.809766
1.110158
0.925938
0.943405
0.786511
0.788293
0.894666
0.905677
1.042428
1.009829
0.929059
0.860612
0.921739
1.019326
0.814748
0.780572
0.775583
0.737773
0.872195
0.944986
1.075544
1.145555
0.727805
0.879055
0.935660
0.946844
0.813175
1.009108
0.959466
1.034184
0.837945
1.014224
0.834341
0.942245
0.901800
0.815271
1.158215
1.130129
1.145186
1.001331
1.078949
1.165680
1.046036
1.272114
1.090637
0.970526
1.153316
0.866833
0.883695
1.196384
1.169815
0.952032
1.023888
0.870366
0.842755
0.773836
1.284637
1.125399
1.122719
1.042350
1.022108
1.099919
0.922180
0.997547
0.948513
1.235348
1.024670
1.083931
0.935054
1.057091
0.936581
1.117635
0.930854
0.820632
1.000946
0.802108
0.759672
0.815110
0.812079
0.810251
0.789203
0.780637
0.948297
0.824630
0.778575
0.796475
0.797589
0.762259
0.842831
0.925483
0.783081
0.866658
0.751943
0.805043
0.893327
0.924004
0.907809
0.807294
1.036498
1.178719
1.291337
0.991353
1.018846
1.220896
1.251002
1.096430
1.106359
0.958867
1.030003
1.168511
1.201176
1.172877
1.033703
1.178528
1.177677
1.123470
1.210006
1.001474
0.981195
0.919500
1.003020
0.867125
0.884631
1.181625
0.753282
0.859385
0.858909
0.800808
1.300236
0.685358
1.242554
1.429812
1.300351
1.234085
1.134450
1.059422
0.994943
1.029398
1.036624
1.107540
1.086075
1.064618
1.049325
1.037889
1.032080
0.944193
0.863423
1.134920
1.085907
0.989963
1.013252
1.038589
1.065679
0.817903
0.803886
1.142984
1.173769
1.023941
0.957909
0.813488
0.695213
1.008287
1.123470
1.224890
1.180959
1.165383
1.072523
0.857964
0.901649
0.770615
0.790332
0.783894
0.861704
0.900008
1.072526
1.032753
0.869656
1.036163
1.224388
0.867779
1.017823
1.487280
1.368731
1.130138
1.302301
1.043969
0.908667
1.181759
0.870858
1.284835
1.327365
1.126487
0.884997
1.038208
1.117200
1.140739
0.932340
1.079284
0.940891
0.884953
0.847633
0.972868
1.242007
1.234480
0.875802
0.732323
0.916451
0.886419
1.148654
1.034726
1.229435
1.136285
0.953757
0.948046
1.095446
1.379023
1.191182
1.031356
1.129659
1.275455
1.405460
1.128387
1.251816
0.815562
1.068004
1.152254
0.779982
0.781968
0.781323
0.789710
0.856337
0.863336
0.827865
0.829036
0.798773
0.762713
0.806610
0.785123
0.783233
0.780663
0.747209
0.696894
0.846775
0.844069
0.857435
0.784185
0.731884
0.859673
0.976876
1.054668
1.076185
1.074705
1.040236
0.756591
0.796218
0.778402
0.808778
1.021717
1.104147
0.987090
0.872770
0.959977
1.077332
1.134664
1.003636
1.114461
1.182339
1.069735
1.147765
1.148634
1.114746
0.899548
0.976259
0.890517
0.804162
0.884441
0.771692
0.803625
0.762439
1.013595
1.101354
0.741258
1.300989
1.260681
1.238782
1.160914
1.083182
1.065085
1.108683
1.153278
1.156774
1.148731
1.059855
1.029128
1.020983
1.010275
0.983008
1.011916
0.903043
1.153559
1.140482
1.008491
0.986061
0.858118
0.984976
1.114248
1.001606
0.815800
0.973465
1.076165
0.881967
0.826441
0.673106
0.795189
1.282714
1.297689
1.184317
1.007838
0.896397
0.893632
0.613255
0.730371
0.769688
0.812693
1.004865
1.022950
1.165626
1.052823
1.096488
0.829077
0.927453
0.959414
0.806216
1.334847
1.233466
1.354821
1.288279
1.259614
1.061411
1.127974
1.057186
0.908613
0.867679
0.828227
1.036132
1.134778
1.253739
0.802845
0.894131
1.074559
1.117206
1.120314
0.645160
0.949406
0.784009
0.907416
0.872542
1.004225
0.993725
1.043566
1.242375
1.238361
1.248181
0.998426
1.000927
1.060465
1.004155
0.713011
1.068485
0.966881
1.051556
0.803742
0.758970
0.807881
0.825911
0.853042
0.865286
0.864319
0.838591
0.752744
0.715841
0.719482
0.783536
0.782115
0.745254
0.753096
0.741570
0.736125
0.748029
0.751052
0.735595
0.815539
0.842806
0.992254
1.006441
0.994438
0.949624
0.903420
0.726664
0.869318
0.868871
0.778348
0.775041
0.774392
0.799079
0.891687
0.905535
1.009441
1.100227
1.005979
1.189802
1.231883
0.969888
0.994701
0.984158
0.899827
0.798737
0.820256
0.790456
0.792734
0.826908
0.772696
0.653928
0.656387
0.771686
0.863045
0.865965
0.968189
1.048703
1.068628
1.099992
1.145865
1.224531
1.089610
1.053464
0.987451
0.972560
1.004491
1.219309
1.088093
0.922765
1.087194
1.248706
1.202529
1.379806
1.218895
1.104015
1.217486
0.814645
0.771907
0.713518
1.182835
0.902514
0.886120
1.223455
0.851902
0.792092
0.829572
0.840023
0.949763
0.990540
1.045101
1.047576
1.050317
1.055982
1.052572
1.007176
0.964869
0.917872
0.900969
0.860315
0.830326
0.828108
0.718595
0.798555
0.750913
0.744186
0.713683
0.783328
0.705713
0.683654
0.770455
0.691715
0.720268
0.663255
0.665202
0.710264
0.665731
0.670075
0.700960
0.698863
0.696907
0.737417
0.721905
0.732310
0.709776
0.703213
0.677697
0.707503
0.730708
0.751977
0.748443
0.681471
0.718779
0.705917
0.704421
0.766794
0.715666
0.690036
0.732064
0.721562
0.640854
0.686980
0.643122
0.674884
0.682850
0.660093
0.701921
0.702017
0.671018
0.670146
0.643148
0.640275
0.636366
0.668451
0.673487
0.651810
0.686439
0.692500
0.657623
0.658293
0.659854
0.655325
0.652336
0.668714
0.677822
0.654339
0.656971
0.656667
0.645624
0.689165
0.714681
0.716016
0.661700
0.681379
0.717122
0.657337
0.706085
0.698939
0.674762
0.724412
0.690382
0.679211
0.668497
0.637429
0.641675
0.675838
0.671391
0.642948
0.662308
0.657398
0.637120
0.663577
0.659250
0.661363
0.684340
0.694768
0.676953
0.704060
0.673098
0.712666
0.720390
0.711339
0.690153
0.687186
0.695520
0.704258
0.751434
0.713514
0.679907
0.750365
0.764957
0.740548
0.808014
0.840320
0.809998
0.919498
0.890894
0.862302
1.001066
1.048218
1.056572
1.285525
1.061341
1.106260
0.987686
1.002425
0.957227
0.957284
0.788988
0.816860
0.633020
0.799764
0.669349
0.751979
0.951238
1.067260
1.051001
0.963009
0.753591
0.677614
0.767379
0.617496
0.588175
0.608862
0.590896
0.673508
0.725202
1.033866
1.086846
1.131312
1.214702
1.295769
1.309801
1.208366
1.146063
1.153549
1.228668
1.171431
0.904830
0.914939
0.831468
0.826232
0.913720
0.956864
0.987791
1.015460
1.013743
1.018876
1.023704
1.014192
0.967199
0.934704
0.900293
0.869137
0.830450
0.766545
1.273911
1.090368
1.155578
1.171138
1.216128
1.201475
1.155555
0.868021
0.998433
0.833538
1.342145
1.017478
0.956439
1.047939
1.106558
0.815034
0.795737
0.941817
0.956858
0.809016
0.780377
0.790346
0.753167
0.783102
0.753695
0.744459
0.759016
0.723318
0.735641
0.710374
0.713177
0.713503
0.711324
0.712099
0.734153
0.739889
0.738149
0.757913
0.754533
0.741406
0.759088
0.758055
0.721015
0.743459
0.763585
0.764828
0.744892
0.731157
0.746409
0.720914
0.710395
0.747777
0.748264
0.765279
0.778239
0.729544
0.778415
0.703957
0.711471
0.724683
0.702069
0.676936
0.714124
0.703674
0.694442
0.693556
0.685843
0.708632
0.700066
0.687462
0.700238
0.710079
0.680694
0.678027
0.681938
0.695406
0.692465
0.707397
0.716955
0.701553
0.719386
0.707904
0.723294
0.734157
0.712638
0.735376
0.737120
0.708358
0.702068
0.716155
0.710179
0.716893
0.726660
0.743227
0.702516
0.693764
0.704699
0.725283
0.735039
0.764826
0.693694
0.695232
0.724193
0.716926
0.723245
0.719685
0.716239
0.714512
0.702469
0.701361
0.700947
0.696873
0.711022
0.720501
0.715864
0.726752
0.744506
0.715744
0.725186
0.765377
0.731184
0.741762
0.766838
0.722330
0.749489
0.797636
0.779813
0.796812
0.868411
0.846982
0.885051
0.967484
1.043500
1.185414
1.009459
1.039416
1.075653
1.144996
1.037776
1.073307
1.138174
1.198670
1.141920
1.091443
0.873629
0.888123
0.900463
0.949494
0.956280
0.905498
0.917594
0.636154
0.640496
0.626239
0.724298
0.601558
0.663021
1.271512
0.974614
1.052080
1.082129
1.056479
1.063629
1.101657
0.891864
0.860838
0.857198
0.827199
0.793837
0.782401
0.658197
0.704718
0.784867
0.800686
0.768863
0.854198
0.966523
1.081909
1.045329
0.973492
1.304858
1.237836
1.174829
1.266767
0.844754
0.795422
0.808085
0.788528
0.799083
0.776408
0.773057
0.774365
0.750856
0.753530
0.749421
0.741897
0.730818
0.736347
0.742713
0.741810
0.748664
0.755797
0.804618
0.792356
0.773552
0.755287
0.777591
0.764522
0.785514
0.792747
0.767480
0.774343
0.783954
0.782847
0.766058
0.790855
0.772292
0.808803
0.784360
0.780249
0.753530
0.772079
0.718937
0.752788
0.731988
0.699311
0.730615
0.714331
0.712038
0.721746
0.690305
0.699784
0.729051
0.687500
0.698840
0.700564
0.714032
0.715127
0.718327
0.713638
0.717502
0.717502
0.708190
0.729086
0.732713
0.729247
0.713498
0.713192
0.718727
0.720991
0.753231
0.737224
0.730201
0.730934
0.740113
0.741766
0.769703
0.731810
0.740565
0.747692
0.723802
0.717980
0.721018
0.723959
0.712945
0.704506
0.709420
0.731697
0.724878
0.722182
0.748538
0.742722
0.718149
0.711000
0.718206
0.698562
0.710525
0.721488
0.732729
0.734251
0.743851
0.752351
0.699344
0.759279
0.773897
0.740593
0.803090
0.777469
0.756933
0.834499
0.807696
0.862110
0.874920
0.873208
0.946917
0.957333
0.986723
1.122430
1.341301
1.463235
1.323229
1.316204
0.812745
1.221032
0.923760
1.115116
1.070284
1.049663
0.998527
0.880586
0.887515
0.967426
1.090426
0.915250
0.847062
0.601534
0.851272
0.771695
0.692446
0.814446
0.870544
0.887605
0.910359
0.938396
0.946812
0.956874
0.969344
0.974373
0.962478
0.931103
0.890744
0.865571
0.851534
1.025599
1.011048
1.016931
1.349945
0.610966
0.656591
0.841795
0.719075
0.738846
0.678934
0.826277
0.691808
0.758967
1.001996
1.115224
1.029800
1.027412
1.011457
0.994144
0.924700
0.851615
0.763134
0.834763
0.966709
1.151383
1.114808
1.051843
0.978605
0.997645
0.975967
0.931907
0.823558
0.950009
0.957239
0.919866
0.931898
0.878662
1.074085
0.786443
0.861860
0.828053
0.860989
0.841062
0.712000
0.656919
0.792497
0.884214
0.825257
0.813499
1.354115
1.408019
1.065523
0.852588
0.963386
0.980214
0.795376
0.841319
0.722565
0.871445
0.767861
0.648963
0.956574
0.705033
1.071516
0.995979
0.730224
0.667009
0.816621
1.362705
1.154063
1.544622
1.451395
1.352541
0.910770
1.103863
0.980389
0.978011
0.986683
0.873044
0.940481
0.758457
0.770990
0.926619
0.803701
0.812115
0.845285
0.847521
0.881991
0.872420
0.713297
0.797284
0.771011
0.695657
0.696222
0.981586
0.798171
0.728295
0.793994
0.786872
0.799876
0.799861
0.877795
0.875348
0.901448
0.949758
0.897114
0.824546
0.828862
0.974821
0.912456
1.057596
0.961362
1.157217
1.170338
0.979479
1.199966
0.841525
1.028872
1.000609
0.835579
0.824077
0.786287
0.830198
0.833071
0.854000
0.880980
0.883252
0.820140
0.724009
0.686584
0.723197
0.777669
0.782968
0.765177
0.770385
0.763841
0.783613
0.765820
0.769213
0.816468
0.815975
0.918005
0.954603
0.969352
0.915103
0.831753
0.854241
0.733078
0.798417
0.811242
0.796553
0.784879
0.785838
0.792363
0.794650
0.833746
0.903462
0.982837
1.098962
1.328531
1.151505
1.118105
0.943371
0.925943
0.876935
0.791795
0.802936
0.826961
0.804744
0.704880
0.700231
0.665222
0.777435
0.995175
0.883024
0.927104
0.760061
0.598389
0.733733
0.742102
0.785601
0.781297
0.763609
0.851836
0.665148
1.227460
1.228385
0.773486
1.154956
1.186746
1.049514
0.974353
0.881660
0.801657
0.794485
0.764208
0.769477
0.814685
0.889341
0.954476
0.912970
0.937965
0.934185
0.881275
0.869610
0.964444
1.012336
0.896725
0.979995
0.869807
0.884234
0.893699
0.776575
0.676084
0.633609
0.752292
0.840331
0.825950
0.808745
0.807151
0.757287
0.692773
0.721934
0.649233
0.761689
0.821173
0.791117
0.745660
0.803944
0.693501
0.646443
0.610233
0.742913
0.943816
0.876380
0.860875
0.770095
0.874178
0.892266
0.958529
1.174568
1.233171
1.162702
1.036117
1.039615
1.021120
0.990071
0.843565
0.787083
0.817476
0.794777
0.810403
0.825357
0.801509
0.863720
0.812453
0.841419
0.828635
0.852572
0.818780
0.734018
0.717624
0.679129
0.721702
0.670575
0.671684
0.741202
0.650795
0.680932
0.784521
0.790346
0.743293
0.752996
0.728692
0.758459
0.799231
0.794564
0.844787
0.881923
0.862763
0.790459
0.849911
0.800259
0.783245
0.786614
0.726359
0.842254
0.735099
1.043866
1.136404
1.073552
0.877693
0.883629
0.839770
0.702681
0.767000
0.777040
0.764230
0.858905
1.013551
1.052445
1.003170
1.004593
1.015820
0.979224
1.183605
1.152446
1.033624
0.944407
0.887617
0.964592
0.999509
0.993189
1.037662
0.927546
0.851748
0.898224
0.856215
0.839745
0.826657
0.819532
0.831841
0.808681
0.799029
0.794626
0.776929
0.776856
0.763466
0.755829
0.760597
0.744409
0.747551
0.743249
0.738549
0.748892
0.748015
0.758626
0.776341
0.777647
0.813804
0.805824
0.802651
0.789423
0.771204
0.824254
0.827659
0.828331
0.856459
0.898274
0.891709
0.868707
0.872586
0.820022
0.835941
0.811680
0.762052
0.752572
0.735703
0.736695
0.770975
0.731854
0.745405
0.719034
0.734248
0.735501
0.732026
0.730090
0.735700
0.729606
0.760196
0.722080
0.716850
0.720434
0.737828
0.714837
0.737645
0.730064
0.750185
0.751792
0.754530
0.762812
0.758994
0.745437
0.749574
0.751254
0.749637
0.767038
0.763656
0.755292
0.750887
0.747247
0.767293
0.756584
0.783803
0.754522
0.739436
0.736370
0.746221
0.741340
0.741631
0.724793
0.724658
0.730278
0.739311
0.729068
0.746442
0.726940
0.733023
0.743141
0.753179
0.764327
0.756888
0.762811
0.743702
0.743393
0.740209
0.771079
0.825892
0.828819
0.804785
0.851424
0.767847
0.763217
0.800929
0.841322
0.777696
0.796727
0.867550
0.885018
0.918572
0.952862
1.065144
1.196709
1.316150
1.426951
1.278796
1.273350
1.115068
0.872233
0.978969
0.944917
0.867397
0.881574
0.905720
0.927067
0.932776
0.938811
0.938658
0.922049
0.883245
0.865432
0.845306
1.045196
0.858971
0.817845
0.773687
0.853459
0.825459
0.871183
0.888755
0.880461
0.788435
0.743959
0.702415
0.710287
0.753366
0.748774
0.752566
0.812079
0.808200
0.821064
0.817585
0.812724
0.900450
0.876766
0.863677
0.781731
0.750072
0.655060
0.793224
0.799660
0.784795
0.788792
0.803120
0.789219
0.775678
0.787460
0.840323
0.800277
0.761299
0.798489
0.823166
0.814101
0.656218
0.731699
1.049666
1.242383
1.011273
1.175827
1.107819
1.055519
1.053779
1.098664
1.072706
1.165359
1.089528
0.990123
0.891714
0.910430
0.965160
0.941738
0.933254
0.914401
0.872500
0.817155
0.830419
0.849267
0.860012
0.832440
0.816250
0.786721
0.834710
0.773680
0.830999
0.730193
0.697548
0.979399
0.903642
0.848809
0.838450
0.865705
0.892943
0.897856
0.870473
0.788919
0.714707
0.689425
0.684611
0.704570
0.765742
0.787646
0.793659
0.792553
0.805788
0.832396
0.848784
0.857041
0.812785
0.786438
0.713293
0.669009
0.785516
0.807021
0.783684
0.757713
0.769599
0.783610
0.802936
0.805095
0.780255
0.794097
0.807276
0.805110
0.800445
0.715796
0.659462
0.801997
0.767834
0.785494
0.810806
0.827462
0.811446
0.832560
0.823022
0.852469
0.791061
0.735159
0.673151
0.668551
0.611362
1.025140
0.600538
0.679723
0.681673
0.758553
0.856674
0.875076
0.894740
0.908433
0.918080
0.923324
0.892219
0.869760
0.838294
0.816862
0.812270
0.795011
0.791598
0.775117
0.770107
0.743781
0.743313
0.739087
0.712557
0.759851
0.715646
0.727074
0.754799
0.737938
0.788239
0.811503
0.799242
0.828034
0.816495
0.830279
0.861007
0.870523
0.882953
0.917315
0.990537
1.007293
0.908780
0.860429
0.897144
0.859638
0.808244
0.770235
0.748983
0.754892
0.751361
0.766005
0.746412
0.754807
0.731969
0.748745
0.748274
0.750980
0.744068
0.743700
0.739906
0.735650
0.738496
0.718915
0.731054
0.747801
0.744201
0.736955
0.751516
0.741782
0.752478
0.737741
0.756753
0.770547
0.763375
0.762270
0.768727
0.763982
0.806236
0.819762
0.834598
0.774755
0.805037
0.793669
0.784301
0.792192
0.779295
0.752947
0.762682
0.750167
0.746875
0.773911
0.740017
0.735798
0.739950
0.754345
0.747575
0.748181
0.766823
0.758707
0.767824
0.754776
0.742209
0.724001
0.752503
0.766800
0.751731
0.775655
0.771659
0.805688
0.772613
0.785413
0.777549
0.800210
0.800303
0.815041
0.748834
0.808817
0.820099
0.836653
0.869178
0.897672
0.950404
1.019914
1.171564
1.285049
1.349697
1.336830
1.033721
1.204053
0.787335
0.611944
0.883324
0.839176
0.892322
0.795880
0.767937
0.673965
0.645261
0.734413
0.807708
0.804174
0.820805
0.799290
0.816406
0.794556
0.770778
0.690902
0.708853
0.676592
0.685773
0.784986
0.734233
0.743641
0.691188
0.717497
0.820004
0.790352
0.803955
0.882753
0.836574
0.826351
0.960077
0.871606
0.936628
1.164708
1.068051
0.966988
0.956242
0.910600
0.798836
0.848544
0.736079
0.752743
0.744860
0.754026
0.786494
0.851796
0.944471
0.915833
1.161136
0.984661
0.929500
0.850345
0.788803
0.759391
0.818267
0.812816
0.806306
0.830362
0.793882
0.837075
0.826845
0.739465
0.757210
0.781775
0.759629
0.747104
0.714943
0.677789
0.729979
0.639871
0.678367
0.651592
0.655854
0.623230
0.711276
0.806208
0.776229
0.735604
0.752536
0.726853
0.716985
0.746042
0.799926
0.818421
0.832384
0.847926
0.849427
0.864722
0.803693
0.823361
0.835054
0.836670
1.052206
0.851550
0.940523
1.201565
1.127250
0.999581
0.938544
0.904864
0.898454
0.845847
0.833547
0.799218
0.762570
0.764098
0.727780
0.683913
0.645359
0.654052
0.684761
0.736298
0.792608
0.784081
0.785108
0.784076
0.766368
0.796532
0.807283
0.773863
0.741913
0.747580
0.750009
0.735160
0.774460
0.790077
0.807285
0.777948
0.818317
0.823375
0.821805
0.804598
0.809389
0.836762
0.827977
0.831788
0.808964
0.747093
0.740403
0.684787
0.620656
0.599635
1.057573
1.093353
0.722236
0.629728
0.633192
0.676785
0.677804
0.780707
0.947337
0.998381
0.700417
0.687027
0.734494
0.843934
1.044761
0.578685
1.034675
0.790712
0.781866
0.848135
0.695635
0.766404
0.876877
1.016991
0.898785
1.009867
1.001424
1.090977
1.036227
0.954916
0.874115
0.835598
0.809870
0.788051
0.804573
0.834347
0.851748
0.860812
0.842872
0.870852
0.859131
0.871612
0.920079
0.974667
1.047390
0.925599
0.902629
0.943658
0.882259
0.855028
0.835411
0.834641
0.859999
0.886204
0.849418
0.864998
0.870614
0.900000
0.915481
0.913456
0.910966
0.886929
0.857670
0.836609
0.792332
0.793156
0.753906
0.745200
0.731182
0.743413
0.707824
0.714160
0.706352
0.738310
0.744239
0.734253
0.716351
0.707193
0.772323
0.805659
0.832910
0.837809
0.839942
0.868693
0.898128
0.904863
0.919936
0.939745
1.081154
1.033246
0.913735
1.015377
0.953528
0.910604
0.859017
0.811147
0.771314
0.776910
0.766318
0.773107
0.772831
0.776928
0.747727
0.767162
0.772031
0.771910
0.756290
0.771278
0.746394
0.755062
0.758293
0.769690
0.741855
0.748336
0.740775
0.719098
0.762466
0.757002
0.755430
0.756992
0.773413
0.791403
0.785728
0.785993
0.805519
0.843121
0.872487
0.868337
0.819547
0.854708
0.900064
0.879084
0.846266
0.809042
0.796804
0.780890
0.784397
0.773839
0.764688
0.767508
0.758283
0.763412
0.764309
0.766353
0.783126
0.794298
0.774099
0.763557
0.756001
0.771244
0.776586
0.770041
0.762686
0.792176
0.781548
0.756388
0.759267
0.765550
0.780717
0.779813
0.809645
0.815272
0.803332
0.774810
0.803144
0.820825
0.839477
0.847822
0.871298
0.927821
1.008509
1.103935
1.225694
1.267445
1.087123
0.916102
0.754954
0.751715
0.948711
0.763366
0.771107
0.754060
0.739501
0.753625
0.811493
0.682627
0.771471
0.694071
0.661924
0.665941
0.737285
0.785251
0.764353
0.714322
0.681129
0.722791
0.762572
0.788869
0.834382
0.821683
0.775707
0.701556
0.660855
0.642161
0.632837
0.666180
0.687619
0.740650
0.752829
0.787943
0.783194
0.826097
0.792842
0.775711
0.764584
0.736263
0.729355
0.744338
0.753899
0.728540
0.746767
0.766855
0.787643
0.800993
0.781181
0.809462
0.812898
0.802935
0.795745
0.798855
0.808289
0.801301
0.830876
0.735819
0.725319
0.568923
0.867655
1.034091
1.076876
0.883197
0.955960
0.894802
0.829977
0.830005
0.805675
0.799852
0.819582
0.796616
0.751962
0.817459
0.864051
0.876040
0.904544
0.917382
0.930458
0.928096
0.945094
0.874182
0.857710
0.826127
0.842924
1.032694
1.134581
0.987067
0.939018
0.922454
0.860224
0.927078
0.883822
0.874749
0.858204
0.851572
0.866049
0.850622
0.866457
0.898190
0.924834
0.891701
0.858330
0.791153
0.720380
0.736288
0.765495
0.761859
0.760961
0.735223
0.717248
0.668394
0.707968
0.626136
0.664379
0.635531
0.605033
0.625041
0.634280
0.767123
0.804818
0.755075
0.746262
0.732822
0.706728
0.694687
0.716911
0.753879
0.783520
0.776518
0.812573
0.845875
0.891175
0.922392
0.915793
0.900638
0.876536
0.836252
0.794424
0.795288
0.731559
0.720108
0.658150
0.689627
0.652051
0.711020
0.692113
0.704459
0.734933
0.646492
0.678347
0.727872
0.779594
0.820460
0.834993
0.873965
0.892007
0.892944
0.891568
0.876983
0.854928
0.801526
0.972145
1.253676
1.083611
1.052571
1.005405
0.897734
0.853937
0.819565
0.828674
0.830401
0.799528
0.792871
0.800786
0.788842
0.776626
0.779737
0.780934
0.782271
0.782262
0.763709
0.741258
0.774844
0.764081
0.750560
0.756374
0.753842
0.776370
0.762928
0.784615
0.777682
0.785745
0.797464
0.792559
0.805698
0.828841
0.863545
0.908692
0.963516
1.002492
0.917585
0.928551
1.024408
0.965419
0.911613
0.868956
0.833240
0.817681
0.809869
0.799167
0.820800
0.794115
0.800645
0.790214
0.769524
0.771849
0.777012
0.790294
0.785232
0.780695
0.789974
0.790225
0.794558
0.793401
0.777981
0.766602
0.764019
0.764013
0.785930
0.780996
0.761457
0.783189
0.755754
0.758585
0.793101
0.777500
0.779202
0.785221
0.778016
0.765015
0.780605
0.803273
0.819503
0.838692
0.870907
0.917683
0.983361
1.041712
1.147702
1.168254
1.076387
0.845553
0.830437
0.655001
0.802447
0.806286
0.761657
0.762286
0.760720
0.717154
0.676963
0.671118
0.644968
0.638901
0.636330
0.710974
0.752707
0.760660
0.757489
0.745968
0.743790
0.785146
0.773473
0.747624
0.767664
0.733311
0.726460
0.719195
0.738963
0.765758
0.758903
0.761260
0.778345
0.823790
0.764366
0.778121
0.783618
0.784286
0.792485
0.790980
0.789845
0.789191
0.801936
0.773542
0.736150
0.795492
0.628769
0.777689
0.712745
0.787032
0.664940
0.743547
0.899566
0.935069
0.821605
0.758918
0.634810
0.712750
1.048801
1.120290
0.985007
0.771798
0.792909
0.755627
0.698150
0.675553
0.685614
0.742328
0.788486
0.939467
0.866487
0.937185
0.826976
0.848179
0.866697
0.881539
0.869150
0.811389
0.730888
0.683815
0.677900
0.706172
0.754830
0.758940
0.790685
0.722936
0.703976
0.707188
0.718909
0.815900
0.753637
0.718681
0.729791
0.754681
0.838221
0.783284
0.817921
0.791284
0.746080
0.776188
0.796143
0.800464
0.775224
0.756007
0.744985
0.689565
0.651650
0.733919
0.789908
0.790357
0.779887
0.758083
0.752180
0.782034
0.748261
0.744666
0.815800
0.835688
0.834603
0.801271
0.854876
0.843625
0.718676
0.718520
0.774250
0.720128
1.034467
1.125017
0.856479
0.870910
0.853052
0.857394
0.874114
0.889453
0.916611
0.916309
0.912864
0.751683
0.717697
0.748509
0.757611
0.757264
0.743855
0.715576
0.708365
0.652663
0.599749
0.622760
0.617902
0.627320
0.628717
0.593941
0.602129
0.706197
0.818407
0.775278
0.803205
0.728887
0.722662
0.688875
0.699677
0.705215
0.720483
0.780766
0.814460
0.834252
1.069416
0.919465
0.908399
0.893839
0.842201
0.793253
0.757942
0.625265
0.709427
0.763324
0.722417
0.737204
0.620819
0.686883
0.739616
0.791115
0.814187
0.837493
0.865674
0.875365
0.885730
0.859759
0.830410
0.723658
0.724396
1.075064
1.141910
1.110736
1.074271
0.946241
0.942709
0.881976
0.842827
0.826337
0.831990
0.825614
0.809250
0.808656
0.822006
0.783487
0.789923
0.777117
0.779568
0.767189
0.757221
0.792731
0.772394
0.753925
0.763240
0.774555
0.773587
0.777527
0.780646
0.798487
0.797362
0.788690
0.802304
0.804754
0.831403
0.871620
0.920056
0.970721
1.052013
1.147774
1.125883
1.055308
1.165099
1.051105
0.997733
0.932683
0.889901
0.856281
0.826987
0.815741
0.853269
0.915364
0.898143
0.845113
0.806193
0.739109
0.647077
0.588583
0.738476
0.741496
0.727049
0.708705
0.665735
0.686621
0.751593
0.800204
0.838871
0.862844
0.885898
0.828308
0.895229
0.844004
0.763302
0.842640
0.827042
1.064396
1.040187
1.048381
0.996030
0.960080
0.907774
0.862072
0.848698
0.821663
0.831026
0.853387
0.851552
0.819633
0.793809
0.796246
0.798559
0.819248
0.787733
0.790286
0.812398
0.832375
0.787162
0.772431
0.766980
0.769680
0.767094
0.787659
0.803259
0.795079
0.805101
0.811033
0.808504
0.836659
0.891216
0.936843
0.961712
1.025427
1.021800
1.161342
1.014232
0.929059
1.017120
0.998150
0.956732
0.916755
0.877587
0.833213
0.828692
0.810998
0.813234
0.807360
0.807152
0.807487
0.799482
0.781772
0.797653
0.753082
0.696958
0.663384
0.727475
0.771082
0.782381
0.772431
0.766345
0.767708
0.737572
0.753311
0.745412
0.746515
0.701675
0.703901
0.681082
0.686978
0.729721
0.715938
0.755565
0.693250
0.690297
0.683824
0.681135
0.667965
0.704312
0.780505
0.730537
0.718758
1.022442
1.014740
1.018648
0.926446
0.650638
0.700174
0.784814
0.765886
0.775638
0.760661
0.757804
0.729411
0.755347
0.778693
0.747350
0.758918
0.785725
0.748362
0.789491
0.885093
1.011546
0.737363
0.789772
0.728889
1.196947
1.124652
1.038883
0.936488
0.914476
0.848258
0.806312
0.823844
0.795868
0.787317
0.791749
0.773920
0.754036
0.812728
0.867358
0.872975
0.876672
0.874630
0.896855
0.904953
0.863193
0.833759
0.804916
0.809611
0.612294
0.607241
0.758826
0.679909
0.755837
0.803002
0.794756
0.815118
0.841170
0.855053
0.890517
0.902797
0.778794
0.840181
0.842255
0.779130
0.627923
0.943598
1.156928
1.036005
1.024663
1.001600
0.974926
0.903441
0.860768
0.829292
0.815709
0.826948
0.818182
0.811154
0.816011
0.803646
0.787309
0.797407
0.792124
0.802662
0.800296
0.787614
0.768557
0.762874
0.776278
0.791017
0.801916
0.793144
0.782228
0.801354
0.780749
0.798342
0.831868
0.821655
0.852180
0.895133
0.945055
0.969961
1.022648
1.051636
0.946389
0.724929
1.037958
1.039593
1.030883
0.996656
0.954582
0.887212
0.853286
0.835402
0.826913
0.810570
0.794058
0.784180
0.789020
0.789469
0.799518
0.802483
0.795275
0.788905
0.794642
0.791007
0.781555
0.794908
0.794589
0.772133
0.783862
0.790147
0.782655
0.785482
0.786234
0.769136
0.776053
0.791659
0.793186
0.792123
0.792738
0.792477
0.796979
0.784361
0.788867
0.808575
0.839741
0.876566
0.902532
0.972908
1.036555
1.102074
1.149625
1.093940
0.881255
1.053935
0.932760
0.776026
0.785860
0.786000
0.802304
0.842177
0.783874
0.735229
0.782540
0.726251
0.742899
0.752877
0.771263
0.743007
0.722177
0.734123
0.665799
0.669494
0.650075
0.607550
0.622193
0.630720
0.643928
0.602408
0.604499
0.827765
0.812244
0.756300
0.747152
0.730320
0.685373
0.707252
0.725500
0.731120
0.791471
0.770513
0.799129
0.796858
0.823288
0.678924
0.711173
0.823097
0.782299
0.817283
0.801787
0.853804
0.811119
0.863956
0.816027
0.757454
0.699530
0.682103
0.709081
0.733492
0.750082
0.748841
0.793732
0.805540
0.804212
0.801334
0.806832
0.805859
0.802002
0.800642
0.789002
0.796233
0.810857
0.802285
0.787527
0.784523
0.777083
0.799615
0.784545
0.795454
0.781540
0.795649
0.797029
0.793766
0.803025
0.815920
0.789677
0.774445
0.780785
0.794565
0.799012
0.823978
0.858445
0.871550
0.920797
0.999050
1.060592
1.097334
1.083989
0.905821
0.799544
0.786165
0.782755
0.782895
0.784960
0.721989
0.791325
0.707143
0.684526
0.720852
0.755379
0.791469
0.733634
0.768727
0.728817
0.725061
0.714281
0.700146
0.691025
0.676689
0.685913
0.679605
0.674189
0.690769
0.683686
0.686018
0.766554
0.787080
0.780686
0.772784
0.760238
0.779404
0.798722
0.790952
0.790109
0.767219
0.726717
0.671917
0.657375
0.631383
0.667676
0.604490
0.709298
1.019971
0.808086
0.879145
0.833858
0.768856
0.769036
0.753464
0.807678
0.833937
0.848519
0.822851
0.796307
1.106270
1.037743
0.968347
0.991378
0.954983
0.903965
0.869434
0.823677
0.866278
0.888278
0.892680
0.916916
0.916729
0.885514
0.834374
0.795787
0.729444
0.744116
0.743141
0.731035
0.745350
0.744698
0.771590
0.802094
0.785113
0.781804
0.789903
0.808025
0.674778
0.682284
0.676641
0.690884
0.744697
0.790695
0.757651
0.744517
0.689002
0.711887
0.693186
0.669958
0.709352
0.699131
0.748442
0.781117
0.759716
0.746183
0.709703
0.727091
0.726935
0.617643
0.612108
0.642623
0.626560
0.619032
0.631036
0.809696
0.791625
0.786311
0.727326
0.714556
0.698954
0.674268
0.699662
0.752906
0.757260
0.811995
0.806013
0.795601
0.785421
0.778159
0.760028
0.762231
0.757783
0.759249
0.761250
0.798892
0.789252
0.790781
0.809375
0.796662
0.798753
0.757327
0.688584
0.636349
0.625564
0.737634
0.617624
0.661574
0.694928
0.807272
0.918109
0.785239
0.764867
0.845306
0.838352
0.807514
0.762494
0.721512
0.689382
0.687192
0.723699
0.722537
0.750676
0.770021
0.759544
0.733123
0.706069
0.677211
0.657350
0.643557
0.636173
0.645997
0.660250
0.668076
0.744131
0.758680
0.743577
0.771319
0.757948
0.750952
0.729135
0.744129
0.730698
0.712972
0.716539
0.735487
0.748009
0.734609
0.768461
0.761769
0.754198
0.759709
0.802926
0.804919
0.803397
0.794161
0.788595
0.777377
0.774992
0.765149
0.778703
0.827471
0.870120
0.868800
0.876052
0.867894
0.845871
0.828538
0.759307
0.733351
0.795811
0.721504
0.713790
0.692804
0.693427
0.677151
0.692537
0.691871
0.732578
0.737986
0.774629
0.775885
0.753266
0.788457
0.789440
0.768659
0.737873
0.717170
0.703737
0.700963
0.700279
0.723566
0.746301
0.736225
0.722840
0.713891
0.719173
0.663564
0.674534
0.669468
0.649804
0.634581
0.637987
0.639649
0.658786
0.703986
0.754871
0.732271
0.740945
0.775136
0.750536
0.773093
0.761750
0.708633
0.729343
0.707006
0.703191
0.726852
0.778222
0.728034
0.761728
0.732269
0.763722
0.758342
0.757667
0.779949
0.847893
0.873479
0.847673
0.837021
0.830219
0.913045
0.809089
0.775043
0.762219
0.775886
0.786714
0.755026
0.708297
0.692017
0.684152
0.720228
0.740428
0.732994
0.778181
0.730084
0.711351
0.685572
0.678804
0.678299
0.657872
0.652581
0.657494
0.665463
0.668561
0.650550
0.679475
0.691000
0.702924
0.715654
0.709640
0.692914
0.681158
0.661173
0.726991
0.750356
0.756476
0.744260
0.700979
0.691651
0.658039
0.800170
0.619201
0.607742
0.638121
0.643090
0.739133
0.827777
0.785481
0.741582
0.733987
0.702183
0.689487
0.660440
0.658788
0.684733
0.694705
0.748133
0.738450
0.754606
0.759316
0.755772
0.761838
0.769815
0.802307
0.807333
0.810703
0.811305
0.807093
0.818430
0.809646
0.812274
0.795733
0.789906
0.790014
0.796168
0.799386
0.786098
0.799139
0.803197
0.801690
0.811009
0.810912
0.795973
0.806443
0.824832
0.784526
0.794778
0.799390
0.793743
0.782952
0.780177
0.798003
0.846550
0.886436
0.933390
0.969469
1.024629
1.036768
1.069557
0.911410
0.770456
0.824490
0.853095
0.873788
0.882927
0.853796
0.838081
0.753712
1.135185
1.056713
1.001081
0.866464
0.871843
0.877328
0.895711
0.897288
0.896789
0.906470
0.845913
0.696505
0.939467
0.939108
0.908487
0.898507
0.856634
0.843548
0.840099
0.903664
0.872562
0.877268
0.898199
0.915892
0.939466
0.934223
0.909086
0.832092
0.833004
0.854258
0.915698
0.883818
0.881916
0.887918
0.874868
0.884529
0.856288
0.844310
0.827700
0.819535
0.800884
0.787019
0.792776
0.781764
0.779967
0.766061
0.765292
0.799122
0.850449
0.816446
0.799079
0.810862
0.844572
0.857848
0.863912
0.841808
0.802632
0.794694
0.690981
0.665548
0.683442
0.681501
0.705665
0.776877
0.786873
0.805739
0.764484
0.791020
0.806821
0.819879
0.934641
0.981512
0.905332
0.735473
0.922305
0.975363
0.928579
0.889888
0.853967
0.826652
0.840419
0.807496
0.801828
0.801304
0.797083
0.824221
0.821495
0.805082
0.814996
0.785979
0.792436
0.810738
0.764913
0.777759
0.772243
0.788667
0.781130
0.799768
0.794975
0.806616
0.782847
0.806733
0.797586
0.796623
0.753908
0.727606
0.705920
0.698956
0.698584
0.691575
0.690593
0.710460
0.704744
0.721000
0.743582
0.724597
0.697561
0.671106
0.659736
0.628894
0.707994
0.641049
0.617393
0.609139
0.620578
0.686110
0.763551
0.726437
0.749430
0.713209
0.700071
0.738791
0.668155
0.661113
0.681852
0.699868
0.736253
0.734484
0.736479
0.732518
0.731164
0.729314
0.744409
0.769753
0.870823
0.875555
0.880632
0.900330
0.920254
0.942623
0.961814
0.968301
0.986588
0.928996
0.925084
0.918899
0.910169
0.872901
0.875663
0.759767
0.865221
0.953335
0.922475
0.915165
0.895789
0.770091
0.780421
0.766927
0.816168
0.798043
0.818569
0.808745
0.804326
0.810008
0.800236
0.784800
0.686281
0.700487
0.566832
0.974059
0.576169
0.683565
0.665081
0.803165
0.799106
0.664088
0.668859
0.647372
0.651482
0.666845
0.682354
0.687335
0.718029
0.728320
0.729501
0.782353
0.753628
0.756412
0.747710
0.748716
0.748347
0.738888
0.700880
0.717012
0.748158
0.741015
0.733805
0.744257
0.736995
0.699940
0.690372
0.656422
0.653569
0.658075
0.653361
0.632546
0.650031
0.658483
0.666111
0.688385
0.806100
0.819761
0.816648
0.829346
0.819230
0.825302
0.821637
0.817307
0.788054
0.795445
0.798562
0.806260
0.786600
0.778699
0.803512
0.800179
0.803058
0.789623
0.782003
0.772466
0.790761
0.796734
0.804424
0.804487
0.813830
0.843386
0.840210
0.822824
0.792478
0.788576
0.771219
0.786491
0.797815
0.823679
0.835308
0.816752
0.827322
0.795410
0.831696
0.807694
0.799622
0.778897
0.783008
0.797295
0.794406
0.798482
0.802220
0.798803
0.791507
0.811474
0.849859
0.868134
0.904161
0.861666
0.898176
0.809104
0.811097
0.834349
0.793352
1.077251
1.039126
1.019715
0.914114
0.883141
0.852057
0.839199
0.827068
0.813128
0.817742
0.819804
0.821196
0.822506
0.802747
0.951035
0.982011
0.885781
0.889968
0.676020
0.665433
0.748714
0.719485
0.703267
0.698623
0.691579
0.689601
0.723090
0.745402
0.722121
0.723407
0.718045
0.703653
0.692399
0.663887
0.668969
0.655046
0.650490
0.643976
0.660084
0.721822
0.748401
0.721879
0.718444
0.721521
0.709265
0.719648
0.725658
0.703474
0.714855
0.735001
0.741442
0.742561
0.782414
0.744975
0.793635
0.791565
0.821139
0.804326
0.791975
0.806836
0.789073
0.797168
0.810747
0.800497
0.789185
0.806368
0.789085
0.806016
0.798374
0.809267
0.833115
0.834637
0.831369
0.814185
0.783985
0.790817
0.777563
0.779671
0.777644
0.793657
0.959808
0.707684
0.696684
0.699687
0.702514
0.696424
0.703539
0.691356
0.706556
0.688324
0.770652
0.737314
0.753314
0.749334
0.730188
0.701737
0.669461
0.643258
0.637957
0.608027
0.638126
0.691756
0.612127
0.598836
0.683209
0.723412
0.738354
0.769077
0.715720
0.702688
0.719088
0.683327
0.711166
0.619282
0.813508
0.842606
0.885537
0.888120
0.868712
0.840908
0.815398
0.810190
0.793789
0.806388
0.793341
0.782758
0.786071
0.767590
0.788773
0.762394
0.791457
0.788269
0.780839
0.769814
0.780994
0.791948
0.786474
0.791306
0.799618
0.797189
0.794996
0.819565
0.805036
0.807046
0.630516
0.833248
0.794294
0.869401
0.863612
0.848808
0.822822
0.825049
0.818919
0.811880
0.795224
0.781097
0.774704
0.771578
0.763157
0.752548
0.770173
0.752126
0.782443
0.789591
0.757591
0.760849
0.784117
0.775527
0.779909
0.783567
0.772841
0.783083
0.813787
0.801430
0.810496
0.809771
0.787025
0.793745
0.796694
0.816710
0.836179
0.855363
0.848721
0.896554
0.885812
0.735602
0.772033
0.741181
0.798904
0.905050
1.045948
1.008186
1.017812
1.015289
0.982125
0.951702
0.919353
0.902923
0.856291
0.859103
0.830210
0.809870
0.818366
0.809045
0.803962
0.813207
0.673817
0.662381
0.652480
0.646337
0.678564
0.643234
0.773222
0.755951
0.746109
0.734036
0.740749
0.742917
0.726429
0.716734
0.694247
0.718472
0.761540
0.720057
0.724916
0.725538
0.712529
0.718244
0.688643
0.660027
0.659494
0.654842
0.642099
0.634445
0.628611
0.633127
0.666933
0.812180
0.813789
0.811347
0.792932
0.785284
0.792870
0.803529
0.767799
0.788808
0.800166
0.799238
0.779549
0.779054
0.777368
0.785538
0.790885
0.805691
0.818006
0.790429
0.786545
0.819980
0.780346
0.806853
0.821542
0.822751
0.756421
0.672855
0.855369
0.801575
0.645790
0.640852
0.702271
0.680396
0.672255
0.696578
0.691407
0.693608
0.710441
0.714882
0.708550
0.707976
0.717555
0.729840
0.771005
0.767274
0.740672
0.723260
0.706254
0.705158
0.684644
0.655013
0.650110
0.610391
0.627573
0.576577
0.804289
0.621880
0.635076
0.607572
0.822836
0.773717
0.757313
0.697106
0.731306
0.708677
0.665667
0.657017
0.662486
0.679002
0.692087
0.710174
0.722314
0.722321
0.717584
0.717137
0.728575
0.770934
0.765750
0.669689
0.654466
0.667266
0.671777
0.706050
0.691963
0.691561
0.684253
0.694460
0.703333
0.731365
0.711323
0.694354
0.698870
0.674721
0.687139
0.673582
0.673461
0.654868
0.668041
0.666821
0.657279
0.658654
0.679815
0.686088
0.719616
0.711779
0.712278
0.720237
0.734843
0.718681
0.731393
0.720508
0.700196
0.722173
0.730607
0.724512
0.750889
0.755457
0.761099
0.772680
0.770416
0.806052
0.798936
0.810165
0.783198
0.789545
0.789342
0.777843
0.779223
0.802132
0.784851
0.785953
0.797250
0.799389
0.804574
0.783303
0.801970
0.795640
0.788729
0.764669
0.761253
0.765842
0.779055
0.793214
0.812106
0.842911
0.840795
0.829372
0.883832
0.895318
0.669485
0.679110
0.714595
0.778679
0.820193
0.923097
0.988958
1.005494
0.944804
0.955041
0.976342
0.951026
0.934327
0.880571
0.859393
0.835063
0.748661
0.775760
0.795955
0.785562
0.806049
0.810165
0.800433
0.807067
0.813728
0.823052
0.747384
0.753334
0.761644
0.736113
0.740519
0.737704
0.727686
0.721661
0.717783
0.713201
0.724328
0.729670
0.725245
0.715327
0.727343
0.702002
0.684928
0.675691
0.655068
0.673754
0.662361
0.646104
0.641160
0.652938
0.639491
0.647377
0.651256
0.757315
0.767598
0.775000
0.768230
0.797633
0.798522
0.780528
0.829406
0.835750
0.702411
0.687943
0.685198
0.687524
0.691786
0.677278
0.700723
0.687673
0.665497
0.676551
0.690543
0.686479
0.682355
0.675984
0.669899
0.658400
0.670378
0.665815
0.690239
0.669149
0.689217
0.715081
0.714136
0.714728
0.695826
0.723920
0.714950
0.706155
0.707920
0.729393
0.694236
0.723820
0.705804
0.712568
0.770222
0.742350
0.732694
0.740505
0.729893
0.757130
0.790494
0.777106
0.797024
0.785023
0.785789
0.800817
0.806910
0.796584
0.790290
0.796419
0.794348
0.813927
0.762609
0.753279
0.673983
0.671146
0.670942
0.678889
0.681683
0.683312
0.705689
0.715959
0.720654
0.713730
0.719856
0.722244
0.756002
0.725030
0.738907
0.711286
0.723061
0.729175
0.725240
0.702243
0.662768
0.641398
0.614369
0.627913
0.566386
0.890354
0.628680
0.648622
0.683492
0.814994
0.816659
0.777117
0.801064
0.792250
0.720534
0.744023
0.711457
0.722516
0.709575
0.680632
0.670761
0.669191
0.687408
0.695470
0.693750
0.704377
0.711777
0.714298
0.712926
0.707106
0.963349
0.925673
0.904110
0.842586
0.851748
0.801709
0.805664
0.781452
0.820445
0.823179
0.811523
0.816378
0.793863
0.781882
0.787976
0.811135
0.788770
0.801570
0.769526
0.752997
0.731074
0.753499
0.777660
0.764914
0.749145
0.767888
0.785161
0.768019
0.779984
0.784013
0.785072
0.776869
0.772993
0.808522
0.795317
0.818423
0.751438
0.761637
0.719948
0.771489
0.741051
0.750383
0.735501
0.731698
0.730041
0.705409
0.718541
0.719239
0.713406
0.730234
0.706863
0.685864
0.683965
0.666765
0.685141
0.786940
0.782253
0.788967
0.805536
0.834921
0.795741
0.817607
0.812145
0.788796
0.770224
0.778292
0.769737
0.740265
0.748757
0.764639
0.760381
0.773711
0.697720
0.692476
0.695368
0.688159
0.667334
0.788349
0.837693
0.823839
0.918942
0.934616
0.733392
0.757040
0.705143
0.689100
0.676585
0.660527
0.656646
0.671016
0.682828
0.691333
0.700864
0.702605
0.691011
0.697653
0.696342
0.702432
0.698251
0.810809
0.743327
0.736147
0.753560
0.744219
0.776467
0.762878
0.765848
0.763322
0.778248
0.772033
0.776893
0.793347
0.781991
0.799183
0.790247
0.816353
0.805604
0.776459
0.781443
0.792733
0.811127
0.836943
0.862978
0.822748
0.954507
0.788037
0.678283
0.568803
0.675227
0.716289
0.726128
0.774597
0.784487
0.779391
0.778650
0.769096
0.780075
0.790012
0.771131
0.777720
0.781409
0.786657
0.801642
0.805693
0.822364
0.847514
0.707839
0.694583
0.680958
0.716810
0.709366
0.717411
0.926406
0.912086
0.911713
0.835885
0.826520
0.835120
0.826021
0.832990
0.829708
0.814966
0.803205
0.809570
0.791095
0.788345
0.786268
0.792378
0.774979
0.768472
0.768290
0.760945
0.769964
0.749858
0.758329
0.767858
0.778749
0.798836
0.806397
0.807177
0.811927
0.823442
0.807722
0.732941
0.746280
0.746998
0.741846
0.736014
0.744663
0.727064
0.723319
0.707827
0.725810
0.707124
0.696591
0.683781
0.681860
0.743236
0.701544
0.743816
0.754443
0.741244
0.758583
0.735446
0.735203
0.696399
0.688771
0.682600
0.679622
0.689576
0.685476
0.673542
0.675185
0.678691
0.696485
0.671226
0.667355
0.687654
0.699430
0.793561
0.821035
0.805329
0.775607
0.760435
0.743384
0.748456
0.757239
0.765345
0.744185
0.699904
0.730545
0.697234
0.700580
0.686847
0.683243
0.692715
0.693662
0.706537
0.715424
0.727923
0.724807
0.731115
0.726619
0.761131
0.755732
0.733671
0.733916
0.764050
0.730125
0.733029
0.750793
0.762568
0.752920
0.781277
0.791247
0.775474
0.771827
0.756035
0.791699
0.775178
0.784490
0.779518
0.783362
0.809818
0.837879
0.870460
0.871125
0.886968
0.734201
0.646349
0.565600
0.637336
0.637895
0.717963
0.626837
0.662745
0.669841
0.815243
0.894707
0.921760
0.910553
0.896538
0.843087
0.803369
0.808654
0.818398
0.827363
0.798138
0.803727
0.693418
0.690215
0.677305
0.780653
0.746142
0.697422
0.664772
0.665873
0.676496
0.679739
0.658878
0.685685
0.692065
0.697151
0.696083
0.695831
0.699344
0.690704
0.686819
0.723778
0.765403
0.772285
0.757298
0.749829
0.734754
0.749503
0.750285
0.707929
0.638388
0.601218
0.588995
0.630694
0.621937
0.900499
0.606747
0.670653
0.734971
0.748273
0.734455
0.732120
0.733503
0.755142
0.723933
0.729909
0.730127
0.709497
0.724597
0.723537
0.721530
0.715770
0.718078
0.714387
0.718155
0.712158
0.709459
0.717105
0.731195
0.732138
0.737377
0.745451
0.697321
0.690302
0.701180
0.691306
0.683593
0.701833
0.708251
0.690395
0.691674
0.711456
0.747039
0.754382
0.749645
0.804875
0.770281
0.780849
0.773887
0.760140
0.741015
0.774676
0.768457
0.760388
0.773914
0.767608
0.764514
0.734538
0.740971
0.737016
0.708097
0.730191
0.728583
0.748228
0.767167
0.761631
0.767340
0.774677
0.756219
0.747192
0.752952
0.760753
0.778942
0.762323
0.770706
0.779134
0.808155
0.845939
0.879770
0.883915
0.860353
0.708211
0.648072
0.665942
0.631987
0.641248
0.662656
0.674300
0.702874
0.624379
0.690875
0.720422
0.832349
0.892757
0.906652
0.893218
0.880044
0.844462
0.815733
0.796700
0.807106
0.803982
0.827795
0.787623
0.690450
0.676349
0.684900
0.682161
0.688198
0.668118
0.684433
0.706762
0.706829
0.679020
0.691551
0.678975
0.656799
0.682077
0.750602
0.773260
0.799753
0.785507
0.754360
0.754593
0.752986
0.733327
0.727545
0.731982
0.774808
0.667891
0.682535
0.687414
0.681335
0.676984
0.703450
0.703086
0.680736
0.686785
0.736249
0.732136
0.715770
0.731760
0.743452
0.733218
0.745634
0.739706
0.751188
0.778613
0.745225
0.774449
0.747377
0.758144
0.766343
0.770286
0.780706
0.805178
0.852273
0.877807
0.876305
0.812127
0.724742
0.649441
0.690494
0.620785
0.611437
0.567273
0.747985
0.675299
0.597799
0.705981
0.716702
0.755092
0.873178
0.885304
0.882170
0.861857
0.851095
0.808839
0.793097
0.817920
0.794837
0.764187
0.819964
0.786295
0.786360
0.688654
0.691067
0.693757
0.699974
0.691259
0.702437
0.715329
0.737443
0.722761
0.605901
0.794840
0.963368
0.624177
0.720357
0.758074
0.769258
0.623636
0.628498
0.743558
0.744744
0.761944
0.756814
0.752078
0.757032
0.744947
0.724446
0.736939
0.722991
0.707493
0.710458
0.741206
0.719840
0.720073
0.707063
0.713658
0.729030
0.741328
0.761248
0.723226
0.752360
0.775803
0.726978
0.716204
0.680532
0.693660
0.674108
0.684427
0.671132
0.684978
0.683030
0.714497
0.704413
0.701838
0.697780
0.658184
0.674745
0.681520
0.753742
0.794185
0.775376
0.774562
0.779182
0.773240
0.761001
0.754553
0.762029
0.772496
0.774041
0.754985
0.779282
0.791302
0.768220
0.735230
0.724871
0.673797
0.676813
0.620933
0.638949
0.845675
0.612547
0.685876
0.689827
0.690588
0.690488
0.783757
0.780950
0.758183
0.746120
0.712866
0.680206
0.691849
0.708244
0.706316
0.738208
0.712252
0.744249
0.753348
0.745095
0.723747
0.734600
0.743748
0.735865
0.745799
0.733504
0.738784
0.760673
0.763331
0.779689
0.802141
0.850020
0.867908
0.851865
0.805917
0.722496
0.663918
0.676422
0.643733
0.610858
0.598944
0.713571
0.723179
0.749149
0.750027
0.747835
0.737488
0.752153
0.756668
0.741295
0.751493
0.752281
0.720722
0.736805
0.765650
0.784937
0.820473
0.808496
0.800246
0.803762
0.762414
0.754406
0.673998
0.776016
0.761588
0.756944
0.753611
0.759976
0.768174
0.758377
0.787639
0.769681
0.763257
0.749507
0.776924
0.763413
0.767824
0.750302
0.734743
0.768678
0.757011
0.760551
0.771661
0.747400
0.757884
0.743637
0.752825
0.782182
0.731050
0.726947
0.760534
0.769482
0.767501
0.677771
0.694358
0.695428
0.690826
0.699721
0.710458
0.722457
0.678594
0.693063
0.690797
0.681760
0.689300
0.690803
0.779344
0.773762
0.767017
0.762739
0.795902
0.764738
0.766929
0.772273
0.697782
0.703137
0.702192
0.693004
0.730728
0.738339
0.715775
0.726415
0.697152
0.706417
0.731238
0.734775
0.749017
0.751594
0.731998
0.724408
0.729679
0.733021
0.754498
0.770867
0.802256
0.837788
0.839645
0.840415
0.780533
0.744996
0.666861
0.654646
0.698908
0.631590
0.667009
0.603103
0.660631
0.617977
0.708056
0.657396
0.829430
0.865586
0.856164
0.843505
0.836318
0.820226
0.808422
0.781874
0.769176
0.769460
0.782854
0.717754
0.739570
0.741789
0.802045
0.785128
0.765273
0.750630
0.730537
0.712857
0.708740
0.690348
0.737876
0.779801
0.762279
0.800375
0.801527
0.783524
0.762947
0.735823
0.722261
0.699378
0.697863
0.686780
0.682288
0.743888
0.753038
0.774807
0.792444
0.825110
0.830705
0.846454
0.756029
0.769057
0.792982
0.760309
0.768903
0.699661
0.715304
0.710350
0.698092
0.684227
0.693375
0.703099
0.705119
0.700943
0.676241
0.695128
0.698272
0.712093
0.723794
0.708407
0.814246
0.824936
0.758592
0.763906
0.784025
0.798776
0.819910
0.843623
0.817649
0.796190
0.818341
0.789144
0.777742
0.746765
0.737457
0.711193
0.703305
0.705507
0.692437
0.701251
0.690176
0.708554
0.695656
0.709567
0.700969
0.724407
0.703211
0.714339
0.710362
0.677997
0.726918
0.719981
0.693155
0.708604
0.733737
0.725248
0.713585
0.742096
0.759567
0.801879
0.696018
0.721109
0.706894
0.714696
0.722332
0.788209
0.698214
0.722312
0.712380
0.699483
0.697759
1.018359
0.890068
1.038686
1.033976
1.102858
1.292868
0.746738
0.741950
0.728984
0.707948
0.730911
0.751836
0.845074
0.827268
0.864435
0.823022
0.804419
0.808089
1.121365
0.953179
0.776501
0.781975
0.682071
0.621325
0.676570
0.642642
0.820026
0.803477
0.729482
0.722630
0.717632
0.778156
0.773998
0.808226
0.887640
0.878914
0.676429
0.658000
0.660732
0.676095
0.652460
0.658366
0.661527
0.643655
0.642523
0.673432
0.681665
0.727816
0.667244
0.660323
0.698477
0.823141
0.778062
0.842461
0.699167
0.702573
0.692707
0.832166
0.788111
0.809043
0.742759
0.703476
0.746550
0.716688
0.752036
0.794402
0.802880
0.846415
0.770299
0.760539
0.765828
0.768037
0.705653
0.724102
0.720493
0.762252
0.775429
0.778371
0.690003
0.696758
0.686630
0.686244
0.684606
0.674672
0.705812
0.704749
0.699084
1.066716
0.757107
0.754823
0.826865
0.784534
0.893311
1.103273
1.223330
0.747832
0.751009
0.760928
0.764165
0.729752
0.751777
0.850638
0.858988
0.835010
0.800439
0.846597
1.047500
1.025617
0.931341
0.959627
0.926399
0.975625
0.914383
0.897344
0.953624
0.897964
0.854925
0.843872
1.008383
1.051977
1.034806
0.896804
0.963956
1.091653
1.130808
0.840976
1.070117
1.166874
1.080231
0.963201
0.946480
0.845603
0.849787
0.907718
0.981089
1.065056
1.120016
0.897764
1.143770
0.977472
0.814493
0.877384
0.910999
0.895549
0.963230
0.996983
1.050769
1.129753
1.057970
0.931481
0.974084
0.996247
0.949401
1.033978
0.987635
0.920131
0.953856
0.990645
0.937406
0.859549
0.910307
0.923817
0.756375
0.759387
0.758989
0.780415
0.801633
0.805242
0.797737
0.814598
0.810766
0.820822
0.819507
0.822720
0.832946
0.842772
0.831643
0.832389
0.801689
0.919308
0.781281
0.755912
0.781177
0.867114
0.895287
0.890416
0.789305
0.832201
0.788994
0.846588
0.868420
0.884502
0.894341
0.900660
0.903166
0.891515
0.897453
0.882471
0.857444
0.869749
0.864938
0.829353
0.807709
0.826667
0.850520
0.811063
0.879035
0.889431
1.027791
1.127534
1.136480
1.072152
1.107814
0.954844
0.842892
0.859128
0.825075
0.792114
0.787885
0.772600
0.761892
0.754869
0.740911
0.768664
0.724363
0.772373
0.715843
0.747744
0.745206
0.730936
0.749510
0.730455
0.749810
0.716879
0.727775
0.719275
0.736792
0.739160
0.721542
0.742555
0.728684
0.737002
0.737365
0.754423
0.755340
0.758757
0.778966
0.787039
0.800711
0.781867
0.774160
0.794364
0.799381
0.803518
0.820530
0.809491
0.783195
0.792597
0.768978
0.740837
0.747305
0.757939
0.743869
0.738203
0.757692
0.736724
0.738198
0.912127
0.881549
0.875975
0.819624
0.919672
0.780289
1.089997
1.054686
1.056641
1.082539
0.998824
1.049898
0.947657
1.061742
0.884103
1.007751
0.814597
0.946684
1.115481
1.047185
1.093340
1.073387
0.881658
0.913153
0.792665
0.834826
0.819054
0.952023
0.875781
0.970004
0.903191
0.978194
0.856853
0.863575
1.178120
0.848784
0.733052
0.710051
0.781905
0.878571
0.859227
0.895297
0.963101
1.006201
0.908505
0.851387
0.951729
0.826159
0.851685
0.838454
0.962626
0.963502
1.043446
1.047237
0.924375
0.790375
1.055781
1.226332
0.924396
1.170491
1.116986
1.027995
1.013557
1.026720
0.944445
0.990822
1.012836
1.104430
1.179124
1.009996
1.041852
1.072099
0.933638
0.836752
0.831170
0.840135
0.957539
0.962554
1.080964
1.095828
1.124540
1.073819
0.973265
1.028343
0.982357
1.029741
1.059555
1.046254
1.081715
1.058690
1.007214
0.941449
0.941792
0.960861
0.911577
1.003828
0.958210
0.942525
0.767389
0.822777
0.774511
0.847841
0.895639
0.909270
1.001518
1.064598
1.195944
1.329797
1.354122
1.177889
1.190851
1.072912
1.011373
1.032168
0.906098
0.881375
0.872888
0.873041
0.821145
0.789989
0.787716
0.791528
0.779366
0.789843
0.771329
0.774733
0.770021
0.786081
0.764201
0.767706
0.760388
0.769539
0.744864
0.761518
0.767321
0.753674
0.749591
0.767625
0.770470
0.775658
0.779937
0.779349
0.803250
0.808040
0.800016
0.811013
0.828828
0.818497
0.797171
0.814414
0.849889
0.813347
0.833363
0.811047
0.832677
0.825350
0.802955
0.787761
0.781836
0.778819
0.775269
0.777997
0.759819
0.749822
0.781801
0.794696
0.979365
1.032348
1.019466
1.127700
1.026398
1.059334
1.112934
1.058343
0.943508
0.860392
1.018267
1.113280
1.151052
1.115747
1.076470
0.899614
0.798163
0.753133
0.770137
0.823736
0.893630
0.873195
0.872915
0.985151
0.859408
0.771045
0.942435
0.716974
1.086987
0.872154
0.977161
0.923574
0.934641
0.920099
0.934370
0.917181
0.969752
1.047672
1.045056
0.852874
1.025301
1.161367
1.171773
1.007217
0.937698
0.821028
0.829193
0.787394
0.781228
0.776881
0.833515
0.830837
0.908285
0.914848
1.030937
0.962354
0.802507
0.908789
0.970454
0.738431
0.702800
0.716017
0.777360
0.847691
0.907972
0.956375
0.972084
0.979006
1.000714
0.987617
0.974217
0.965343
0.912488
0.782796
0.793795
0.805652
0.792744
0.828384
0.798672
0.820021
0.806045
0.781738
0.797772
0.790812
0.781049
0.771898
0.748622
0.776254
0.740742
0.774219
0.852704
0.869397
0.914793
0.964248
0.980339
1.026180
1.044283
1.052923
0.954364
0.908114
0.996132
0.884317
0.955032
0.971222
1.026286
0.938608
0.920016
0.977663
0.985217
0.979913
0.867499
1.106718
0.921806
0.895584
0.945578
0.902601
0.874967
0.820562
0.782370
1.065065
1.005790
1.040852
1.064855
0.955623
0.961304
0.974891
1.046239
1.139771
1.128616
1.138354
1.066482
0.993973
0.987031
0.949380
0.942244
0.936703
0.941405
0.969821
0.860893
0.782198
0.945592
0.779090
0.791706
0.801180
0.814148
0.817091
0.795317
0.806994
0.799283
0.789015
0.804974
0.780947
0.790706
0.731025
0.736885
0.756231
0.756145
0.829346
0.955080
0.777805
0.917647
0.769112
0.883124
0.792979
1.061293
0.831019
0.933896
0.974069
0.990201
0.904270
1.020716
1.133168
1.227314
1.293209
1.303942
1.313062
0.971875
1.083184
0.982802
1.122918
1.101309
1.030885
0.938399
0.910060
0.886582
0.850227
0.839128
0.805707
0.819520
0.811736
0.811006
0.794897
0.804744
0.804372
0.782724
0.786371
0.810720
0.816314
0.797204
0.781384
0.768013
0.776972
0.782727
0.777448
0.771064
0.785526
0.784784
0.793591
0.799850
0.795104
0.800683
0.812512
0.815382
0.814444
0.832508
0.823721
0.833435
0.853452
0.856627
0.904849
0.886615
0.882537
0.875716
0.860305
0.860187
0.851513
0.841249
0.808993
0.803876
0.793288
0.788696
0.841181
0.898891
0.879920
0.917598
0.910169
1.073037
1.008687
0.903254
0.856945
0.991877
1.130165
1.167224
1.060185
0.876749
0.873864
0.836942
0.835767
0.834998
0.840934
0.875368
0.907868
0.892086
0.798571
0.838947
0.883580
0.748424
0.782426
0.923643
0.973636
0.693324
0.756101
0.829365
0.942916
1.018734
0.983542
1.018337
1.076885
1.053628
1.040892
1.032728
0.852162
0.850582
1.019334
0.871177
0.983617
1.037567
0.724307
0.761786
0.796812
0.834149
0.907775
0.830980
0.834949
0.829899
0.851780
0.826766
0.914651
0.932464
0.908066
0.831020
1.054359
0.780951
0.801831
0.808466
0.766220
0.795871
0.793409
0.852710
0.857033
0.864452
0.840979
0.853000
0.824596
0.886263
0.810857
0.823614
0.851553
0.878921
0.845835
0.892372
0.848192
0.838111
0.809334
0.777158
0.891994
1.003495
0.957937
0.896938
0.887417
0.909626
1.005592
1.127569
1.225765
1.203690
1.123716
1.136523
1.006308
0.961828
0.889853
0.862782
0.926858
0.929659
0.940660
0.921526
0.856721
0.827000
1.076951
1.198076
1.248399
1.262096
1.334978
1.088665
0.991673
0.977452
1.160241
1.093535
1.057345
1.001727
0.917797
0.907295
0.877931
0.875666
0.875604
0.854643
0.838355
0.832189
0.832250
0.838066
0.826357
0.800092
0.826175
0.823798
0.837813
0.815692
0.794851
0.804643
0.811302
0.787663
0.803708
0.810337
0.822908
0.800509
0.807470
0.804921
0.811830
0.816347
0.831640
0.841409
0.843111
0.851295
0.855735
0.881432
0.891877
0.902241
0.973942
0.947348
0.955239
0.935475
0.939945
0.939751
0.912550
0.873622
0.868336
0.859094
0.827462
0.817030
0.923946
1.026630
0.958454
0.971251
1.002558
1.006412
0.837818
0.857917
0.808219
0.818479
0.773750
0.797778
0.801259
0.780808
0.748353
0.749238
0.752949
0.826143
0.834387
0.937237
0.833573
0.756597
0.862109
0.803147
0.937797
0.956781
0.934306
0.967620
0.988567
0.957331
0.905467
0.898104
0.924438
1.044947
0.985743
0.944803
0.916448
0.926343
0.985268
1.096968
1.056362
0.902842
0.853508
0.830549
0.819758
0.854148
0.843814
0.832820
0.831513
0.835483
0.859697
0.887132
0.903746
0.891604
0.815001
0.734940
0.786639
0.753773
0.806650
0.971350
0.856271
0.995949
0.744968
0.780709
0.903302
0.944516
0.948587
1.085056
1.188442
1.142956
0.959530
1.002547
1.089837
1.244413
1.102842
1.244459
0.712254
0.991214
1.184460
1.137094
1.063918
1.028339
1.023547
0.973138
0.964075
0.951482
0.969850
0.975768
0.924619
0.974302
0.938690
0.864421
0.871823
0.858320
0.837904
0.843853
0.850004
0.846746
0.846269
0.846980
0.822754
0.847153
0.848894
0.830340
0.775071
0.729224
0.740043
0.723253
0.936742
0.824626
0.797847
0.722763
0.918430
0.939776
0.877872
0.860267
0.865523
0.859398
0.871755
0.883100
0.896357
0.910850
0.906985
0.908083
0.880984
0.856981
0.859232
0.816866
0.835383
0.810437
0.799581
0.742938
0.747949
0.734932
0.844735
0.782327
0.844167
0.820907
0.845986
0.826536
0.813853
0.760828
0.926623
0.983343
0.975608
0.968907
1.008345
1.014662
0.974239
0.932318
0.884993
0.854836
0.840233
0.836466
0.824046
0.829796
0.816851
0.799239
0.801235
0.767382
0.781128
0.829219
0.831213
0.845160
0.866849
0.848346
0.836616
0.848465
0.842722
0.860909
0.855694
0.844837
0.869478
0.829260
0.821535
0.812629
0.792495
0.862615
0.801116
0.811054
0.801306
0.796034
0.811868
0.815876
0.821706
0.823167
0.825969
0.831039
0.846741
0.856725
0.867151
0.907216
0.916562
0.910206
0.955954
1.020128
1.049925
1.023149
0.999730
0.939255
0.923414
0.908078
0.892968
0.865612
0.842293
0.885633
0.872634
0.881303
0.871363
1.080694
1.210765
1.168203
0.942188
0.889808
0.883154
0.864469
0.865146
0.875807
0.868757
0.857540
0.867668
0.912197
0.920930
0.966858
0.872747
0.867420
0.884765
0.864554
0.836974
0.773647
0.805134
0.823340
0.843131
0.822924
0.812457
0.752064
0.827789
0.833843
0.858396
0.946373
0.840312
0.917986
0.986193
0.981310
0.966999
0.971877
0.976562
0.982187
0.973046
0.924640
0.917204
0.929996
1.011698
1.014413
0.876315
0.861274
0.911724
0.869321
0.853442
0.846255
0.856963
0.844098
0.878832
0.881367
0.813260
0.700958
0.793221
0.930538
0.925855
0.949674
0.734837
0.863680
0.754468
0.833052
0.933075
0.964084
0.944179
0.964872
0.962416
0.955090
0.948840
0.924394
0.946868
0.965437
0.976398
0.925573
0.934488
0.909851
0.898253
0.880043
0.861779
0.846292
0.833475
0.852875
0.870997
0.855482
0.847520
0.822961
0.837244
0.839116
0.873335
0.840362
0.879181
0.860544
0.842756
0.883066
0.872662
0.851724
0.831030
0.844808
0.856162
0.886015
0.893155
0.894413
0.810482
0.813099
0.817985
0.767238
0.797406
0.820690
0.846957
0.840499
0.841603
0.829636
0.842080
0.836743
0.842385
0.830299
0.825929
0.874200
0.859559
0.864984
0.861149
0.904636
0.900762
0.904637
0.936498
0.952444
0.974757
1.020299
1.066330
0.994012
0.877065
0.936650
0.949471
0.921201
0.840606
0.856319
0.858610
0.844631
0.854767
0.814199
0.759815
0.721886
0.806408
0.851901
0.841304
0.884849
0.838827
0.861308
0.855766
0.852033
0.857224
0.831305
0.881895
0.910250
0.952773
0.868903
0.837157
0.869965
0.871176
0.858459
0.867438
0.845411
0.918107
0.891949
0.853617
0.910547
0.913973
0.934433
0.875952
0.879030
0.834711
0.808070
0.813374
0.848866
0.774604
0.794620
0.776643
0.833938
0.826848
0.822210
0.808056
0.807638
0.810394
0.792164
0.818935
0.835593
0.853262
0.823852
0.866451
0.834211
0.854324
0.866362
0.852088
0.847225
0.863799
0.836792
0.864563
0.841573
0.822736
0.848160
0.880695
0.931363
0.906460
0.907798
0.745218
0.909453
0.840624
0.813567
0.839660
0.794959
0.841584
0.870434
0.879074
0.926599
0.889430
0.860720
0.852526
0.857020
0.939280
0.933103
0.914109
0.927448
0.922130
0.937807
0.909769
0.893059
0.904656
0.892544
0.870897
0.857605
0.847657
0.856867
0.881558
0.887557
0.875334
0.867624
0.846136
0.826412
0.837679
0.846245
0.854264
0.856914
0.838724
0.849560
0.851576
0.843953
0.927531
0.905091
0.847104
0.911915
0.876043
0.892283
0.899353
0.876532
0.894870
0.912386
0.889660
0.948832
0.918761
0.861024
0.897639
0.889468
0.871933
0.942018
0.931325
0.866142
0.880999
0.872722
0.898227
0.876382
0.935299
0.949764
0.954943
0.973727
0.975300
0.978953
0.967027
0.941396
0.843167
0.945978
0.960177
0.912224
0.992639
1.010442
0.989640
0.967572
0.952968
0.931889
0.965662
0.948271
0.927828
0.904212
0.924381
0.922439
0.927482
0.906510
0.904969
0.941377
0.920666
0.924060
0.808759
0.757033
0.730422
0.855251
0.840826
0.856109
0.850783
0.846275
0.843777
0.740483
0.705948
0.948246
0.941056
0.853717
0.839259
0.838425
0.815205
0.753225
0.757825
0.814153
0.809781
0.837019
0.853105
0.863549
0.851927
0.830964
0.833685
0.848676
0.836003
0.846316
0.844429
0.882268
0.933192
0.885733
0.892306
0.859163
0.842615
0.838814
0.839949
0.859636
0.838132
0.824139
0.828651
0.836182
0.825757
0.836418
0.811145
0.797565
0.813212
0.812086
0.812517
0.797895
0.849671
0.870505
0.847330
0.876059
0.897345
0.907849
0.882516
0.889711
0.858114
0.884385
0.889133
0.871242
0.868327
0.868495
0.860812
0.847144
0.834851
0.872674
0.854818
0.858908
0.866541
0.859949
0.860203
0.903894
0.881134
0.916818
0.900608
0.875694
0.879650
0.845262
0.860865
0.871386
0.853251
0.853882
0.859972
0.868336
0.852862
0.826354
0.873641
0.884368
0.867838
0.855692
0.863752
0.870413
0.876225
0.883681
0.900538
0.917654
0.876756
0.936243
0.916736
0.947996
0.957848
0.985312
0.971184
0.963812
0.899279
0.903739
0.939038
0.781349
0.845323
0.858999
0.829756
0.825620
0.809842
0.808932
0.788630
0.789295
0.799896
0.792024
0.796689
0.823487
0.853120
0.868832
0.848638
0.831473
0.838005
0.806503
0.840596
0.829228
0.796687
0.792666
0.779779
0.774114
0.769868
0.774586
0.783200
0.818203
0.813109
0.812669
0.844352
0.854823
0.914010
0.964562
1.001998
0.997111
0.973823
0.957362
0.945391
0.905797
0.839485
0.844377
0.837474
0.811859
0.766424
0.756902
0.772477
0.788132
0.823651
0.829409
0.822724
0.826048
0.844425
0.830065
0.820518
0.829581
0.833270
0.823870
0.819900
0.853974
0.903358
0.953922
0.912817
0.924497
0.912025
0.908249
0.888779
0.899204
0.845033
0.845871
0.853491
0.850508
0.839358
0.844336
0.844557
0.945220
0.895990
0.865412
0.913148
0.858162
0.864471
0.860200
0.845644
0.863964
0.861144
0.875920
0.868675
0.869495
0.896843
0.882354
0.899804
0.880972
0.903746
0.839062
0.793190
0.850196
0.897652
0.918997
0.992076
0.966384
1.025443
0.980511
1.003772
1.000649
0.987909
0.961615
0.910967
0.895658
0.888852
0.878421
0.867502
0.845755
0.859636
0.839089
0.834847
0.831216
0.814428
0.777707
0.760134
0.748657
0.761009
0.789599
0.822179
0.808729
0.819384
0.817338
0.813640
0.825342
0.806421
0.823595
0.805561
0.813234
0.828196
0.799426
0.815138
0.861520
0.904112
0.895917
0.904819
0.915765
0.891360
0.889835
0.941371
0.948682
0.966527
0.980428
0.970499
0.948613
0.956494
0.807780
0.793828
0.853676
0.887929
0.875711
0.883937
0.881880
0.864339
0.878776
0.854104
0.864293
0.886725
0.865585
0.824469
0.900477
0.878242
0.843616
0.954194
0.960220
0.950716
0.926283
0.986656
0.951462
1.031833
0.995694
1.000404
0.985399
0.957587
0.931838
0.896528
0.882221
0.876654
0.882452
0.894200
0.904549
0.869517
0.895749
0.903814
0.905937
0.891391
0.905878
0.871037
0.854130
0.847806
0.855964
0.865003
0.855502
0.864717
0.867976
0.863459
0.900601
0.880009
0.902042
0.897664
0.910444
0.953624
0.975430
0.977745
0.975000
0.982046
0.784647
0.761039
0.735838
0.727147
0.738464
0.785235
0.796923
0.792849
0.793547
0.799518
0.806528
0.801337
0.826769
0.826283
0.826467
0.840695
0.821730
0.832581
0.878890
0.897187
0.857805
0.857474
0.843848
0.844373
0.832086
0.857347
0.874333
0.883715
0.874521
0.869790
0.867204
0.860215
0.777704
0.950837
0.962379
0.969296
1.038055
1.035054
1.028822
0.964110
0.941486
0.926031
0.918461
0.905735
0.877316
0.893439
0.893203
0.855315
0.858904
0.862208
0.862871
0.841472
0.802598
0.829587
0.854729
0.853206
0.863968
0.879056
0.848490
0.863172
0.862841
0.859972
0.874582
0.870623
0.874704
0.878084
0.885529
0.889658
0.818103
0.826411
0.890481
0.896583
0.876813
0.892263
0.952037
0.968508
1.025228
0.973771
0.832443
0.821706
0.845300
0.842358
0.825610
0.794691
0.770860
0.764839
0.746795
0.751116
0.752542
0.745529
0.725729
0.721911
0.781877
0.783528
0.785993
0.795578
0.824637
0.856964
0.847006
0.852103
0.862402
0.854379
0.896975
0.864791
0.849455
0.855511
0.871177
0.855931
0.857453
0.835152
0.837080
0.803106
0.787743
0.753171
0.737038
0.726312
0.730667
0.729196
0.747946
0.892586
0.877279
0.862567
0.858130
0.874237
0.851949
0.865378
0.867071
0.885412
0.875631
0.857055
0.817782
0.782278
0.778551
0.747004
0.742105
0.726751
0.716110
0.743141
0.766512
0.788270
0.725713
0.787886
0.811411
0.832756
0.822638
0.818194
0.847269
0.849801
0.862528
0.857662
0.862959
0.857210
0.843375
0.823214
0.803444
0.790785
0.846432
0.847486
0.836748
0.829732
0.859200
0.859570
0.875057
0.863978
0.855187
0.859558
0.858348
0.870437
0.875787
0.880537
0.895428
0.868628
0.873465
0.848821
0.883407
0.875991
0.862362
0.876328
0.863854
0.844540
0.841843
0.822655
0.842413
0.841001
0.835290
0.857982
0.870579
0.875091
0.886295
0.976258
0.983185
0.901066
0.978810
0.875708
0.860835
0.840265
0.843438
0.829389
0.829684
0.834852
0.851668
0.931788
0.826704
0.845322
0.688218
0.909273
0.945059
0.924107
0.908511
0.903502
0.821031
0.838034
0.848426
0.824610
0.828602
0.884358
0.745884
0.872506
0.954484
0.792177
0.780181
0.754619
0.773873
0.893627
0.865458
0.861212
0.927579
0.905492
0.905182
0.921359
0.917188
0.968722
0.862940
0.849930
0.892529
0.991717
0.990451
0.976676
0.981162
1.002770
0.977291
0.739232
0.876735
0.883353
0.862981
0.892735
0.905938
0.931790
0.872712
0.908450
1.045509
0.897024
0.955547
0.862587
0.859468
0.867663
0.884945
0.984323
0.908822
0.914208
0.855096
0.892084
0.850825
1.094406
1.057788
1.088176
1.169299
0.875368
0.914773
0.886045
0.895074
1.017232
0.869060
0.928915
0.999979
0.961345
0.939448
1.169998
1.082764
0.793739
0.912346
1.111799
0.907273
0.947246
1.134611
0.705884
0.720191
0.738823
0.756054
0.770550
0.788890
0.780678
0.797108
0.782058
0.849978
0.840354
0.821597
0.798088
0.841074
0.841054
0.843775
0.965198
0.862677
0.906330
0.884736
1.033052
1.015061
1.085574
1.121853
1.035663
1.070898
0.959694
0.825333
0.967052
0.971505
0.973863
0.988951
0.989435
1.105203
1.214473
0.986220
0.953820
1.005865
1.021636
0.983584
0.935471
1.002609
1.031715
1.105627
0.844889
0.932306
0.905976
0.867816
0.819961
0.915052
0.933842
0.848979
0.850973
0.764246
0.986904
0.992429
1.056561
1.154355
1.022257
1.085984
1.089630
0.981971
0.852273
1.042025
0.961559
0.966262
0.895637
0.842110
0.843862
0.905017
0.848127
0.772813
0.697740
0.776040
0.698600
0.757153
0.691087
0.736675
0.695771
0.801954
0.694027
0.698080
0.746677
0.702278
0.745642
0.685398
0.763252
0.705500
0.734231
0.698607
0.747134
0.688649
0.721454
0.687326
0.719958
0.682117
0.716979
0.684010
0.727075
0.684158
0.739332
0.687515
0.764572
0.690314
0.743037
0.688980
0.753332
0.677984
0.773428
0.680728
0.730201
0.688069
0.724970
0.677755
0.694909
0.680885
0.724697
0.680789
0.860734
0.891975
0.725994
0.706391
0.729625
0.782300
0.805777
0.828197
0.973402
1.003355
0.873917
0.834083
0.811405
0.773147
0.855739
0.859549
0.879166
0.862482
0.927611
0.932758
0.915675
1.018456
0.953078
0.894420
0.987365
1.022188
1.173141
1.031690
0.900310
1.085663
1.040047
0.915166
1.043598
1.125662
1.099358
1.058650
1.092785
1.138465
1.063936
0.842018
0.742609
0.822173
0.807931
0.966233
1.187184
1.126565
1.145322
1.133956
1.063390
0.797610
0.947499
0.998424
1.035956
1.164627
1.190590
1.034596
1.089020
1.129019
1.020844
1.057002
1.001269
1.014969
0.964948
0.919097
0.899572
1.072607
1.052233
1.012588
0.976514
0.932356
0.943506
0.899116
0.840274
0.994427
0.953519
0.909326
0.973801
1.070869
1.100583
1.162563
1.107671
1.092632
1.039209
1.001739
0.979839
1.013721
0.934286
0.892705
0.963255
0.986375
1.024572
1.067420
0.782885
0.736804
1.064232
1.166599
0.755604
0.761680
0.737152
0.747620
0.745625
0.742817
0.752881
0.736790
0.738808
0.731656
0.745884
0.738200
0.755597
0.745558
0.754333
0.769426
0.760281
0.731801
0.727095
0.736742
0.721721
0.717783
0.711862
0.717465
0.714112
0.723713
0.721585
0.724321
0.729240
0.715268
0.725035
0.763712
0.706093
0.737762
0.720625
0.724647
0.729784
0.715828
0.710373
0.727477
0.729755
0.750679
0.765076
0.734317
0.742077
0.731578
0.737280
0.759724
0.776576
0.781891
0.789792
0.776581
0.769653
0.802862
0.822249
0.821985
0.808099
0.800008
0.800790
0.846864
0.772150
0.863417
0.854299
0.865991
1.077857
0.777387
0.794857
0.789710
0.771761
0.876054
0.856270
0.937943
0.877739
0.804742
0.791094
0.772629
0.787401
1.004914
0.941036
0.851502
1.003149
1.121595
1.090907
1.000309
0.822851
0.782057
0.783585
0.782471
0.855593
0.761375
0.775718
0.792184
0.688073
1.083418
1.072893
0.720872
0.996332
0.867881
1.020166
1.099927
1.051934
0.960736
0.872911
0.844873
0.873864
0.964630
0.986748
0.933106
0.985646
1.150630
1.277459
1.161173
1.155273
1.045631
0.916166
1.021975
0.936292
1.038103
1.043307
1.065599
0.967810
0.944323
0.922156
0.933934
0.913393
0.917062
0.944010
0.951763
1.102311
1.032342
1.023316
1.156508
1.074685
0.922995
0.837452
0.838082
0.856385
0.840778
0.839470
0.994980
0.853375
0.861632
0.817872
0.819359
0.807363
0.792296
0.774306
0.742815
0.744314
0.731145
0.776312
0.747570
0.707341
0.810442
0.837073
0.887072
0.941977
0.901395
0.885625
0.907702
0.895121
0.905246
0.949537
1.003941
0.745445
0.762025
0.777245
0.802210
0.788334
0.800972
0.783002
0.781944
0.764200
0.756049
0.752710
0.810297
0.737668
0.756924
0.845743
0.876352
0.900884
0.752132
0.746495
0.758716
0.772643
0.777252
0.770446
0.778284
0.777609
0.792301
0.764746
0.769179
0.787857
0.790600
0.800126
0.763961
0.775786
0.742579
0.755076
0.730945
0.735665
0.733128
0.727692
0.732816
0.731762
0.746080
0.738128
0.739252
0.730917
0.737242
0.742917
0.737479
0.737239
0.748794
0.767290
0.751920
0.754134
0.731577
0.750126
0.754836
0.741729
0.739241
0.753036
0.737483
0.883660
0.775154
0.816889
0.834828
0.877970
0.837632
0.804610
0.806079
0.805391
0.813124
0.828993
0.783184
0.803713
0.786718
0.740968
0.695406
0.817586
0.919197
0.799535
0.832669
0.756605
0.787062
0.891224
0.984120
1.108759
1.028019
0.923943
0.887941
0.879143
0.891407
0.860949
0.837951
0.792197
0.846935
1.029824
1.018089
1.137083
1.236155
1.243947
1.037203
0.978760
1.032448
0.927808
0.921375
0.947528
0.921141
0.967440
0.953444
0.900836
0.951529
0.936694
0.916497
0.908143
0.910680
0.952521
0.877813
0.786141
0.790641
0.762195
0.799874
0.861982
0.829689
0.815912
0.834455
0.889487
0.837017
0.834091
0.839781
0.838066
0.820585
0.811933
0.782392
0.774205
0.758137
0.746440
0.810586
0.841413
0.759293
0.770967
0.788560
0.789243
0.791767
0.772411
0.760024
0.785426
0.742103
0.772353
0.749150
0.769206
0.777096
0.826564
0.855161
0.814225
0.772027
0.738807
0.769453
0.797069
0.792914
0.758588
0.768706
0.815069
0.875147
0.830270
0.848224
0.856340
0.768282
0.782853
0.794709
0.780361
0.787622
0.787265
0.795105
0.793122
0.791183
0.805458
0.796271
0.775037
0.789009
0.774322
0.755484
0.772639
0.747361
0.759447
0.748730
0.734967
0.739431
0.739408
0.743678
0.756939
0.734817
0.741327
0.735125
0.755478
0.762508
0.768138
0.736221
0.775958
0.762257
0.772291
0.758637
0.744961
0.757363
0.755921
0.740446
0.755949
0.839481
0.804066
0.851427
0.806366
0.822936
0.866526
0.844634
0.852590
0.826917
0.816842
0.815674
0.815292
0.788908
0.774972
0.784064
0.782632
0.731474
0.756060
0.751561
0.890457
0.704291
0.742176
0.800313
0.845106
0.970198
1.004518
0.969569
0.829122
0.853579
0.752812
0.757076
0.826005
0.774431
0.892544
0.776213
0.753595
0.719578
0.737131
0.753652
0.839603
0.905694
0.963726
0.929497
0.887043
0.883401
0.865578
0.902032
0.855014
0.864632
0.835104
0.854709
0.940152
0.980204
1.166815
1.245336
1.198432
0.969502
0.964492
0.943681
0.890412
0.910354
0.859444
0.928761
0.904974
0.933323
0.949714
0.951689
0.954306
0.882402
0.864791
0.888009
0.830051
0.796381
0.789951
0.753652
0.806769
0.807772
0.843808
0.856945
0.837717
0.864249
0.860571
0.825439
0.820390
0.861132
0.811556
0.834301
0.826853
0.869458
0.846140
0.834604
0.809073
0.785475
0.769939
0.776445
0.766107
0.778313
0.778011
0.780161
0.752791
0.745722
0.767432
0.741622
0.786252
0.750610
0.791509
0.818208
0.815683
0.808429
0.784838
0.769680
0.774946
0.843284
0.867786
0.881989
0.866156
0.814937
0.796102
0.814250
0.845821
0.842699
0.868055
0.807835
0.821273
0.812938
0.805329
0.812612
0.821420
0.809736
0.802857
0.822698
0.786685
0.814010
0.779148
0.779843
0.790371
0.761480
0.768611
0.766891
0.756008
0.744127
0.720173
0.721356
0.732833
0.745066
0.753557
0.737595
0.742258
0.741334
0.756656
0.766903
0.781892
0.778896
0.773318
0.787689
0.777457
0.781305
0.776453
0.772825
0.764128
0.831499
0.834259
0.844816
0.846939
0.929132
0.897796
0.947202
0.911037
0.926188
0.914041
0.930000
0.954336
0.941041
0.927459
0.906169
0.842744
0.801782
0.816141
0.791291
0.775596
0.791021
0.805963
0.813732
0.833154
0.859529
0.839871
0.848956
0.868137
0.876751
0.883162
0.802679
0.846796
0.861924
0.842263
0.800587
0.793271
0.844902
0.989571
0.747946
0.810639
0.844257
0.810557
0.787303
0.802445
0.848671
0.897405
0.910506
0.900305
0.899624
0.890963
0.891743
0.882012
0.921752
0.893524
0.937465
0.961056
0.943438
0.970970
0.927616
0.827468
0.822490
0.835345
0.837256
0.820775
0.851817
0.836075
0.835621
0.771762
0.767260
0.788408
0.775018
0.771197
0.775536
0.763062
0.770825
0.760896
0.779872
0.793124
0.800008
0.809133
0.805267
0.805985
0.810199
0.813804
0.850527
0.879084
0.876044
1.004419
1.128888
1.159555
1.113702
0.954102
0.824225
0.819906
0.821476
0.817801
0.828711
0.836961
0.829626
0.823605
0.825736
0.822301
0.805250
0.809458
0.788321
0.781536
0.776501
0.747591
0.760670
0.719724
0.745627
0.748512
0.732986
0.758685
0.727999
0.744516
0.742583
0.750964
0.761982
0.761917
0.787139
0.790253
0.803374
0.779783
0.775472
0.801672
0.785776
0.763906
0.870777
0.868039
0.855614
0.885575
0.781334
0.791188
0.776407
0.775310
0.764484
0.780995
0.775548
0.774973
0.782287
0.785815
0.796188
0.800073
0.809044
0.811510
0.836456
0.856796
0.884930
0.934206
0.935383
0.901387
0.896257
0.869175
0.860322
0.847828
0.835304
0.824451
0.800292
0.792787
0.801049
0.813408
0.828499
0.846721
0.856506
0.858939
0.856316
0.844833
0.845865
0.853623
0.884256
0.865741
0.851035
0.867473
0.850537
0.885206
0.939133
1.050645
1.049757
0.872751
0.885235
0.934043
0.916990
0.922908
0.951678
0.867231
0.775666
0.883343
0.959935
0.978107
1.005091
0.793889
0.708471
0.777673
0.832330
0.853811
0.858610
0.895676
0.893972
0.888166
0.880484
0.906231
0.902369
0.913558
0.912824
0.925952
0.948395
0.981204
0.922114
0.893104
0.827355
0.848900
0.839652
0.838788
0.830966
0.838981
0.828415
0.826815
0.840573
0.821609
0.820568
0.803649
0.799793
0.787142
0.766921
0.740272
0.719474
0.739062
0.731277
0.743131
0.748512
0.711729
0.709926
0.746048
0.751623
0.745548
0.765873
0.785015
0.777556
0.804503
0.800613
0.789129
0.793743
0.803226
0.792833
0.833637
0.842382
0.837178
0.836589
0.831315
0.856678
0.880314
0.872749
0.893925
0.869433
0.878777
0.871760
0.854467
0.823623
0.812222
0.805027
0.816569
0.831276
0.848448
0.868079
0.859538
0.859561
0.858379
0.854300
0.851246
0.854424
0.841808
0.851951
0.859220
0.828661
0.830042
0.831052
0.844045
0.863241
0.870031
0.883856
0.922313
0.895624
0.912193
0.928471
0.954739
0.899664
0.949947
0.858619
0.940760
0.940897
0.777849
0.854712
0.904563
0.905128
0.892419
0.862466
1.011223
0.695520
0.722904
0.808135
0.822316
0.876911
0.865112
0.889642
0.897381
0.908215
0.892497
0.869983
0.839899
0.839487
0.871398
0.850810
0.856693
0.861610
0.850896
0.850461
0.815016
0.813064
0.811834
0.798983
0.766028
0.768169
0.721009
0.734524
0.750568
0.755187
0.740495
0.699348
0.745452
0.767972
0.739618
0.748857
0.749971
0.781772
0.805699
0.818131
0.798212
0.794826
0.798408
0.800835
0.783928
0.781530
0.782292
0.792799
0.790828
0.790186
0.804078
0.798992
0.797847
0.802298
0.815669
0.829545
0.884773
0.856981
0.842577
0.848118
0.886028
0.907684
0.862152
0.837866
0.926131
0.846654
0.828123
0.826152
0.824032
0.835867
0.857365
0.872651
0.884708
0.873342
0.871487
0.868368
0.855664
0.860944
0.865445
0.852633
0.861358
0.839538
0.841597
0.843816
0.843214
0.924104
0.886241
0.852724
0.855347
0.856080
0.859584
0.860486
0.869564
0.847500
0.850904
0.830907
0.806818
0.796959
0.811790
0.772642
0.730375
0.795277
0.753413
0.748320
0.770729
0.755542
0.760895
0.795025
0.735042
0.743921
0.750203
0.781553
0.794158
0.810045
0.824185
0.813255
0.800160
0.797350
0.805917
0.788207
0.787250
0.806450
0.789563
0.796866
0.797061
0.830669
0.827367
0.843845
0.830991
0.829183
0.830328
0.855158
0.862549
0.869624
0.882550
0.874378
0.881545
0.865938
0.873600
0.867633
0.865098
0.855176
0.831318
0.846058
0.842262
0.833141
0.794821
0.808636
0.806829
0.813986
0.824541
0.804080
0.830426
0.827821
0.844495
0.864351
0.860148
0.868468
0.890537
0.878831
0.855207
0.823769
0.766414
0.755720
0.967108
0.876102
0.825493
0.891968
0.961337
0.866568
0.731053
0.762084
0.785102
0.825694
0.836878
0.846207
0.857587
0.879648
0.859365
0.876600
0.877680
0.831274
0.851260
0.848470
0.863002
0.861819
0.860272
0.857782
0.839677
0.812595
0.815060
0.791833
0.801111
0.806191
0.752234
0.792324
0.762694
0.764233
0.857047
0.845834
0.761872
0.756309
0.760880
0.765995
0.781598
0.798502
0.812095
0.807271
0.807713
0.878524
0.870129
0.863021
0.860545
0.843849
0.851985
0.868100
0.865276
0.869758
0.851537
0.843890
0.835743
0.831659
0.817204
0.790642
0.788307
0.755025
0.730173
0.783001
0.786000
0.769263
0.833373
0.813062
0.742840
0.737703
0.749404
0.765205
0.783646
0.800121
0.814561
0.837503
0.808646
0.809547
0.813801
0.838536
0.816384
0.823191
0.843169
0.844652
0.871050
0.849260
0.856331
0.849084
0.861179
0.818319
0.787936
0.775653
0.712668
0.958635
0.800962
0.864605
0.871497
0.859984
0.869628
0.872304
0.864769
0.875224
0.863448
0.855418
0.856628
0.840173
0.841325
0.764236
0.777231
0.751235
0.870723
0.752143
0.807820
0.744558
0.775274
0.797543
0.794847
0.822871
0.825323
0.798770
0.833205
0.825207
0.790649
0.835221
0.732019
0.752965
0.717784
0.750239
0.829302
0.836908
0.861670
0.848204
0.860778
0.869843
0.794724
0.785000
0.828441
0.826712
0.837418
0.856464
0.878742
0.839112
0.814591
0.844148
0.853549
0.866823
0.876268
0.863461
0.833850
0.829180
0.847560
0.833388
0.828988
0.766813
0.748086
0.769015
0.818082
0.813353
0.808843
0.842292
0.815103
0.831115
0.823673
1.115833
1.001517
1.011057
1.032123
0.882627
0.901805
0.895442
0.834758
0.895666
0.921081
0.859607
0.853998
0.878204
0.896055
0.861650
0.859557
0.875836
0.867110
0.921642
0.874144
0.852328
0.865836
0.859103
0.872517
0.844770
0.917121
0.967612
0.915235
0.914956
POINT_DATA 11046
SCALARS Contact_Boolean float 1
LOOKUP_TABLE default
0.000000
0.000000
0.000000
0.000000
0.000000
0.000000
0.000000
0.000000
0.000000
0.000000
0.000000
0.000000
0.000000
0.000000
0.000000
0.000000
0.000000
0.000000
0.000000
0.000000
0.000000
0.000000
0.000000
0.000000
0.000000
0.000000
0.000000
0.000000
0.000000
0.000000
0.000000
0.000000
0.000000
0.000000
0.000000
0.000000
0.000000
0.000000
0.000000
0.000000
0.000000
0.000000
0.000000
0.000000
0.000000
0.000000
0.000000
0.000000
0.000000
1.000000
0.000000
0.000000
0.000000
0.000000
0.000000
0.000000
0.000000
0.000000
0.000000
0.000000
0.000000
0.000000
0.000000
0.000000
0.000000
0.000000
0.000000
1.000000
1.000000
1.000000
1.000000
1.000000
1.000000
1.000000
1.000000
1.000000
1.000000
1.000000
1.000000
1.000000
1.000000
1.000000
1.000000
0.000000
1.000000
1.000000
1.000000
1.000000
1.000000
0.000000
0.000000
0.000000
0.000000
1.000000
1.000000
1.000000
1.000000
1.000000
1.000000
1.000000
1.000000
1.000000
1.000000
1.000000
1.000000
1.000000
1.000000
1.000000
1.000000
1.000000
1.000000
1.000000
1.000000
0.000000
1.000000
1.000000
1.000000
1.000000
1.000000
1.000000
1.000000
1.000000
1.000000
1.000000
1.000000
1.000000
1.000000
1.000000
1.000000
1.000000
1.000000
1.000000
1.000000
1.000000
0.000000
0.000000
0.000000
0.000000
0.000000
0.000000
1.000000
1.000000
1.000000
1.000000
1.000000
1.000000
1.000000
1.000000
1.000000
1.000000
1.000000
1.000000
1.000000
1.000000
1.000000
1.000000
1.000000
0.000000
0.000000
0.000000
0.000000
0.000000
1.000000
1.000000
1.000000
1.000000
1.000000
1.000000
1.000000
1.000000
1.000000
1.000000
1.000000
1.000000
1.000000
1.000000
1.000000
1.000000
1.000000
1.000000
1.000000
1.000000
1.000000
1.000000
1.000000
1.000000
1.000000
0.000000
1.000000
1.000000
1.000000
1.000000
1.000000
0.000000
1.000000
1.000000
1.000000
1.000000
1.000000
1.000000
1.000000
1.000000
1.000000
1.000000
1.000000
1.000000
1.000000
1.000000
0.000000
0.000000
0.000000
0.000000
0.000000
0.000000
0.000000
0.000000
0.000000
0.000000
0.000000
0.000000
0.000000
0.000000
0.000000
0.000000
0.000000
1.000000
1.000000
1.000000
1.000000
1.000000
1.000000
1.000000
1.000000
1.000000
1.000000
1.000000
1.000000
1.000000
1.000000
1.000000
1.000000
1.000000
1.000000
1.000000
1.000000
1.000000
1.000000
1.000000
1.000000
1.000000
1.000000
1.000000
1.000000
1.000000
1.000000
0.000000
0.000000
0.000000
0.000000
1.000000
1.000000
1.000000
1.000000
1.000000
1.000000
1.000000
1.000000
1.000000
1.000000
1.000000
1.000000
1.000000
1.000000
1.000000
1.000000
1.000000
1.000000
0.000000
0.000000
0.000000
0.000000
0.000000
0.000000
0.000000
0.000000
0.000000
0.000000
0.000000
0.000000
0.000000
0.000000
0.000000
0.000000
0.000000
0.000000
0.000000
0.000000
0.000000
0.000000
0.000000
0.000000
0.000000
0.000000
0.000000
0.000000
0.000000
0.000000
0.000000
0.000000
0.000000
0.000000
0.000000
0.000000
0.000000
0.000000
0.000000
0.000000
0.000000
0.000000
0.000000
0.000000
0.000000
0.000000
1.000000
1.000000
1.000000
1.000000
1.000000
1.000000
1.000000
1.000000
0.000000
0.000000
0.000000
0.000000
0.000000
0.000000
0.000000
0.000000
0.000000
0.000000
0.000000
0.000000
0.000000
0.000000
0.000000
0.000000
0.000000
1.000000
1.000000
1.000000
1.000000
1.000000
1.000000
1.000000
1.000000
0.000000
0.000000
1.000000
1.000000
1.000000
1.000000
1.000000
0.000000
0.000000
0.000000
1.000000
1.000000
1.000000
1.000000
1.000000
1.000000
1.000000
1.000000
1.000000
1.000000
1.000000
1.000000
0.000000
1.000000
1.000000
1.000000
1.000000
1.000000
1.000000
1.000000
1.000000
1.000000
1.000000
1.000000
1.000000
1.000000
1.000000
1.000000
1.000000
1.000000
1.000000
1.000000
1.000000
1.000000
1.000000
1.000000
1.000000
1.000000
1.000000
1.000000
1.000000
1.000000
1.000000
1.000000
1.000000
1.000000
1.000000
1.000000
1.000000
0.000000
0.000000
0.000000
0.000000
0.000000
0.000000
0.000000
0.000000
0.000000
0.000000
0.000000
0.000000
0.000000
0.000000
0.000000
0.000000
0.000000
0.000000
0.000000
0.000000
0.000000
0.000000
0.000000
0.000000
0.000000
0.000000
0.000000
0.000000
0.000000
0.000000
0.000000
0.000000
0.000000
0.000000
0.000000
0.000000
0.000000
0.000000
0.000000
0.000000
0.000000
0.000000
0.000000
0.000000
0.000000
0.000000
0.000000
0.000000
0.000000
0.000000
0.000000
0.000000
0.000000
0.000000
0.000000
0.000000
0.000000
0.000000
0.000000
0.000000
0.000000
0.000000
0.000000
0.000000
1.000000
1.000000
1.000000
1.000000
1.000000
1.000000
1.000000
0.000000
0.000000
0.000000
0.000000
1.000000
1.000000
1.000000
1.000000
0.000000
0.000000
0.000000
0.000000
0.000000
0.000000
0.000000
0.000000
1.000000
1.000000
1.000000
1.000000
0.000000
0.000000
0.000000
0.000000
0.000000
0.000000
0.000000
0.000000
0.000000
0.000000
0.000000
0.000000
0.000000
0.000000
1.000000
1.000000
1.000000
1.000000
1.000000
1.000000
1.000000
0.000000
1.000000
1.000000
1.000000
1.000000
1.000000
1.000000
1.000000
1.000000
1.000000
1.000000
1.000000
1.000000
1.000000
1.000000
1.000000
1.000000
1.000000
1.000000
1.000000
1.000000
1.000000
1.000000
1.000000
1.000000
1.000000
1.000000
1.000000
1.000000
1.000000
1.000000
1.000000
1.000000
1.000000
1.000000
0.000000
0.000000
0.000000
0.000000
0.000000
0.000000
0.000000
0.000000
0.000000
0.000000
0.000000
0.000000
0.000000
0.000000
0.000000
0.000000
0.000000
0.000000
0.000000
0.000000
0.000000
0.000000
0.000000
0.000000
0.000000
0.000000
0.000000
0.000000
0.000000
0.000000
0.000000
0.000000
0.000000
0.000000
0.000000
0.000000
0.000000
0.000000
0.000000
0.000000
0.000000
0.000000
0.000000
0.000000
0.000000
0.000000
0.000000
0.000000
0.000000
0.000000
0.000000
0.000000
0.000000
0.000000
0.000000
0.000000
0.000000
0.000000
0.000000
0.000000
0.000000
0.000000
0.000000
0.000000
0.000000
0.000000
0.000000
0.000000
0.000000
0.000000
0.000000
0.000000
0.000000
0.000000
0.000000
0.000000
0.000000
0.000000
0.000000
0.000000
0.000000
0.000000
0.000000
0.000000
0.000000
0.000000
0.000000
0.000000
0.000000
0.000000
0.000000
0.000000
0.000000
0.000000
0.000000
0.000000
0.000000
0.000000
0.000000
0.000000
0.000000
0.000000
0.000000
0.000000
0.000000
0.000000
0.000000
1.000000
1.000000
1.000000
1.000000
0.000000
0.000000
0.000000
1.000000
1.000000
1.000000
1.000000
1.000000
1.000000
1.000000
1.000000
1.000000
1.000000
1.000000
1.000000
1.000000
1.000000
1.000000
1.000000
1.000000
1.000000
1.000000
1.000000
1.000000
1.000000
1.000000
1.000000
1.000000
1.000000
1.000000
1.000000
1.000000
0.000000
0.000000
0.000000
0.000000
0.000000
0.000000
0.000000
0.000000
1.000000
1.000000
0.000000
0.000000
0.000000
0.000000
0.000000
0.000000
0.000000
0.000000
0.000000
0.000000
0.000000
0.000000
0.000000
0.000000
0.000000
0.000000
0.000000
0.000000
0.000000
0.000000
0.000000
0.000000
0.000000
0.000000
0.000000
0.000000
0.000000
0.000000
0.000000
0.000000
0.000000
0.000000
0.000000
0.000000
0.000000
0.000000
0.000000
0.000000
0.000000
0.000000
0.000000
0.000000
0.000000
0.000000
0.000000
0.000000
0.000000
0.000000
0.000000
0.000000
0.000000
0.000000
0.000000
0.000000
0.000000
0.000000
0.000000
0.000000
0.000000
0.000000
0.000000
0.000000
0.000000
0.000000
0.000000
0.000000
0.000000
0.000000
0.000000
0.000000
0.000000
0.000000
0.000000
0.000000
0.000000
0.000000
0.000000
0.000000
0.000000
0.000000
0.000000
0.000000
0.000000
0.000000
0.000000
0.000000
0.000000
0.000000
0.000000
0.000000
0.000000
0.000000
0.000000
0.000000
0.000000
0.000000
0.000000
0.000000
0.000000
0.000000
0.000000
0.000000
0.000000
0.000000
0.000000
0.000000
0.000000
0.000000
0.000000
0.000000
0.000000
0.000000
0.000000
0.000000
0.000000
0.000000
0.000000
0.000000
0.000000
0.000000
0.000000
0.000000
1.000000
1.000000
1.000000
1.000000
1.000000
1.000000
1.000000
1.000000
1.000000
1.000000
1.000000
1.000000
1.000000
1.000000
1.000000
1.000000
1.000000
1.000000
1.000000
1.000000
1.000000
1.000000
1.000000
1.000000
1.000000
1.000000
1.000000
1.000000
1.000000
1.000000
1.000000
0.000000
0.000000
0.000000
0.000000
0.000000
0.000000
0.000000
0.000000
0.000000
0.000000
0.000000
0.000000
0.000000
0.000000
0.000000
0.000000
0.000000
0.000000
0.000000
0.000000
0.000000
0.000000
0.000000
0.000000
0.000000
0.000000
0.000000
0.000000
0.000000
0.000000
0.000000
0.000000
0.000000
0.000000
0.000000
0.000000
0.000000
0.000000
0.000000
0.000000
0.000000
0.000000
0.000000
0.000000
0.000000
0.000000
0.000000
0.000000
0.000000
0.000000
0.000000
0.000000
0.000000
0.000000
0.000000
0.000000
0.000000
0.000000
0.000000
0.000000
0.000000
0.000000
0.000000
0.000000
0.000000
0.000000
0.000000
0.000000
0.000000
0.000000
0.000000
0.000000
0.000000
0.000000
0.000000
1.000000
1.000000
1.000000
1.000000
1.000000
1.000000
1.000000
1.000000
1.000000
1.000000
1.000000
1.000000
1.000000
1.000000
1.000000
1.000000
1.000000
1.000000
1.000000
0.000000
1.000000
1.000000
1.000000
1.000000
1.000000
1.000000
1.000000
0.000000
0.000000
0.000000
0.000000
0.000000
0.000000
0.000000
0.000000
0.000000
0.000000
0.000000
0.000000
0.000000
0.000000
0.000000
0.000000
0.000000
0.000000
0.000000
0.000000
0.000000
0.000000
0.000000
0.000000
0.000000
0.000000
0.000000
0.000000
0.000000
0.000000
0.000000
1.000000
0.000000
0.000000
0.000000
0.000000
0.000000
0.000000
0.000000
0.000000
0.000000
0.000000
0.000000
0.000000
0.000000
0.000000
0.000000
0.000000
0.000000
0.000000
0.000000
0.000000
0.000000
0.000000
0.000000
0.000000
0.000000
0.000000
0.000000
0.000000
0.000000
0.000000
0.000000
1.000000
1.000000
0.000000
0.000000
0.000000
0.000000
0.000000
0.000000
0.000000
0.000000
0.000000
0.000000
0.000000
0.000000
0.000000
0.000000
0.000000
0.000000
0.000000
0.000000
0.000000
0.000000
0.000000
0.000000
0.000000
0.000000
0.000000
0.000000
0.000000
0.000000
0.000000
0.000000
0.000000
0.000000
0.000000
0.000000
0.000000
0.000000
0.000000
0.000000
0.000000
0.000000
0.000000
0.000000
0.000000
0.000000
0.000000
0.000000
0.000000
0.000000
0.000000
0.000000
0.000000
0.000000
1.000000
1.000000
1.000000
1.000000
1.000000
1.000000
1.000000
0.000000
0.000000
0.000000
0.000000
0.000000
0.000000
0.000000
0.000000
0.000000
0.000000
0.000000
0.000000
1.000000
1.000000
1.000000
0.000000
0.000000
0.000000
0.000000
1.000000
0.000000
0.000000
0.000000
0.000000
0.000000
0.000000
0.000000
0.000000
0.000000
0.000000
0.000000
0.000000
0.000000
0.000000
0.000000
0.000000
0.000000
0.000000
0.000000
0.000000
0.000000
0.000000
0.000000
0.000000
0.000000
0.000000
0.000000
0.000000
0.000000
1.000000
1.000000
1.000000
0.000000
0.000000
0.000000
0.000000
0.000000
0.000000
0.000000
0.000000
0.000000
0.000000
0.000000
0.000000
0.000000
0.000000
0.000000
0.000000
0.000000
0.000000
0.000000
0.000000
0.000000
0.000000
0.000000
0.000000
0.000000
0.000000
0.000000
0.000000
0.000000
0.000000
0.000000
0.000000
0.000000
0.000000
0.000000
0.000000
0.000000
0.000000
0.000000
1.000000
1.000000
1.000000
0.000000
0.000000
0.000000
0.000000
0.000000
0.000000
0.000000
0.000000
0.000000
0.000000
0.000000
0.000000
0.000000
0.000000
0.000000
0.000000
0.000000
0.000000
0.000000
0.000000
0.000000
0.000000
0.000000
0.000000
0.000000
0.000000
0.000000
0.000000
0.000000
0.000000
0.000000
0.000000
0.000000
0.000000
0.000000
0.000000
0.000000
0.000000
0.000000
0.000000
0.000000
0.000000
0.000000
0.000000
0.000000
0.000000
0.000000
0.000000
0.000000
0.000000
0.000000
0.000000
0.000000
0.000000
0.000000
0.000000
0.000000
0.000000
0.000000
0.000000
0.000000
0.000000
0.000000
0.000000
0.000000
0.000000
0.000000
0.000000
0.000000
0.000000
0.000000
0.000000
0.000000
0.000000
0.000000
0.000000
0.000000
0.000000
0.000000
0.000000
0.000000
0.000000
0.000000
0.000000
0.000000
0.000000
0.000000
0.000000
0.000000
0.000000
0.000000
0.000000
0.000000
0.000000
0.000000
0.000000
0.000000
0.000000
0.000000
0.000000
0.000000
0.000000
0.000000
0.000000
0.000000
0.000000
0.000000
0.000000
0.000000
0.000000
0.000000
0.000000
0.000000
0.000000
0.000000
0.000000
0.000000
0.000000
0.000000
0.000000
0.000000
0.000000
0.000000
0.000000
0.000000
0.000000
0.000000
0.000000
0.000000
0.000000
0.000000
0.000000
0.000000
0.000000
0.000000
0.000000
0.000000
0.000000
0.000000
0.000000
0.000000
0.000000
0.000000
0.000000
0.000000
0.000000
0.000000
0.000000
0.000000
0.000000
0.000000
0.000000
0.000000
0.000000
0.000000
0.000000
0.000000
0.000000
0.000000
0.000000
0.000000
0.000000
0.000000
0.000000
0.000000
0.000000
0.000000
0.000000
0.000000
0.000000
0.000000
0.000000
0.000000
0.000000
0.000000
0.000000
0.000000
0.000000
0.000000
0.000000
0.000000
0.000000
0.000000
0.000000
0.000000
0.000000
0.000000
0.000000
0.000000
0.000000
0.000000
0.000000
0.000000
0.000000
0.000000
0.000000
0.000000
0.000000
0.000000
0.000000
0.000000
0.000000
0.000000
0.000000
0.000000
0.000000
0.000000
0.000000
0.000000
0.000000
0.000000
0.000000
0.000000
0.000000
0.000000
0.000000
0.000000
0.000000
0.000000
0.000000
0.000000
0.000000
0.000000
0.000000
0.000000
0.000000
0.000000
0.000000
0.000000
0.000000
0.000000
0.000000
0.000000
0.000000
0.000000
0.000000
0.000000
0.000000
0.000000
0.000000
0.000000
0.000000
0.000000
0.000000
0.000000
0.000000
0.000000
0.000000
0.000000
0.000000
0.000000
0.000000
0.000000
0.000000
0.000000
0.000000
0.000000
0.000000
0.000000
0.000000
0.000000
0.000000
0.000000
0.000000
0.000000
0.000000
0.000000
0.000000
0.000000
0.000000
0.000000
0.000000
0.000000
0.000000
0.000000
0.000000
0.000000
0.000000
0.000000
0.000000
0.000000
0.000000
0.000000
0.000000
0.000000
0.000000
0.000000
0.000000
0.000000
0.000000
0.000000
0.000000
0.000000
0.000000
0.000000
0.000000
0.000000
0.000000
0.000000
0.000000
0.000000
0.000000
0.000000
0.000000
0.000000
0.000000
0.000000
0.000000
0.000000
0.000000
0.000000
0.000000
0.000000
0.000000
0.000000
0.000000
0.000000
0.000000
0.000000
0.000000
0.000000
0.000000
0.000000
0.000000
0.000000
0.000000
0.000000
0.000000
1.000000
0.000000
0.000000
0.000000
0.000000
0.000000
0.000000
0.000000
0.000000
0.000000
0.000000
0.000000
1.000000
1.000000
0.000000
0.000000
0.000000
0.000000
0.000000
0.000000
0.000000
0.000000
0.000000
0.000000
0.000000
0.000000
0.000000
0.000000
0.000000
0.000000
0.000000
0.000000
0.000000
0.000000
0.000000
0.000000
0.000000
0.000000
0.000000
0.000000
0.000000
0.000000
0.000000
0.000000
0.000000
0.000000
0.000000
0.000000
0.000000
0.000000
0.000000
0.000000
0.000000
0.000000
0.000000
0.000000
0.000000
0.000000
0.000000
0.000000
0.000000
0.000000
0.000000
0.000000
0.000000
0.000000
0.000000
0.000000
0.000000
0.000000
0.000000
0.000000
0.000000
0.000000
0.000000
0.000000
0.000000
0.000000
0.000000
0.000000
0.000000
0.000000
0.000000
0.000000
0.000000
0.000000
0.000000
0.000000
0.000000
0.000000
0.000000
0.000000
0.000000
0.000000
0.000000
0.000000
0.000000
0.000000
0.000000
0.000000
0.000000
0.000000
0.000000
0.000000
0.000000
0.000000
0.000000
0.000000
0.000000
0.000000
0.000000
0.000000
0.000000
0.000000
0.000000
0.000000
0.000000
0.000000
0.000000
0.000000
0.000000
0.000000
0.000000
0.000000
0.000000
0.000000
0.000000
0.000000
0.000000
0.000000
0.000000
0.000000
0.000000
0.000000
1.000000
1.000000
1.000000
0.000000
1.000000
1.000000
1.000000
1.000000
1.000000
1.000000
1.000000
1.000000
1.000000
1.000000
1.000000
1.000000
1.000000
1.000000
1.000000
1.000000
1.000000
1.000000
1.000000
0.000000
0.000000
0.000000
0.000000
0.000000
0.000000
0.000000
0.000000
0.000000
1.000000
1.000000
1.000000
1.000000
1.000000
1.000000
1.000000
1.000000
1.000000
1.000000
1.000000
1.000000
0.000000
0.000000
0.000000
0.000000
0.000000
0.000000
0.000000
0.000000
0.000000
0.000000
0.000000
0.000000
0.000000
0.000000
0.000000
0.000000
1.000000
1.000000
1.000000
1.000000
1.000000
1.000000
1.000000
1.000000
1.000000
1.000000
1.000000
1.000000
1.000000
1.000000
1.000000
1.000000
1.000000
1.000000
1.000000
1.000000
1.000000
1.000000
0.000000
0.000000
1.000000
1.000000
0.000000
0.000000
0.000000
1.000000
1.000000
1.000000
1.000000
1.000000
1.000000
1.000000
0.000000
1.000000
1.000000
1.000000
0.000000
1.000000
1.000000
1.000000
1.000000
1.000000
1.000000
1.000000
1.000000
0.000000
0.000000
0.000000
0.000000
1.000000
1.000000
1.000000
1.000000
1.000000
0.000000
0.000000
0.000000
0.000000
0.000000
0.000000
0.000000
0.000000
0.000000
0.000000
1.000000
1.000000
1.000000
1.000000
1.000000
1.000000
1.000000
1.000000
1.000000
1.000000
1.000000
1.000000
1.000000
1.000000
1.000000
1.000000
1.000000
1.000000
1.000000
1.000000
1.000000
1.000000
1.000000
1.000000
1.000000
1.000000
1.000000
1.000000
1.000000
1.000000
1.000000
1.000000
1.000000
1.000000
1.000000
1.000000
1.000000
1.000000
1.000000
1.000000
1.000000
1.000000
1.000000
1.000000
1.000000
1.000000
1.000000
1.000000
1.000000
1.000000
1.000000
1.000000
1.000000
1.000000
0.000000
0.000000
0.000000
0.000000
0.000000
0.000000
0.000000
0.000000
0.000000
0.000000
0.000000
0.000000
0.000000
1.000000
1.000000
1.000000
1.000000
0.000000
1.000000
1.000000
1.000000
1.000000
1.000000
1.000000
1.000000
1.000000
1.000000
1.000000
1.000000
1.000000
1.000000
1.000000
1.000000
1.000000
1.000000
1.000000
1.000000
1.000000
1.000000
1.000000
1.000000
1.000000
1.000000
1.000000
1.000000
1.000000
1.000000
1.000000
1.000000
1.000000
1.000000
1.000000
1.000000
1.000000
1.000000
1.000000
1.000000
1.000000
1.000000
1.000000
1.000000
1.000000
0.000000
0.000000
0.000000
0.000000
0.000000
0.000000
0.000000
0.000000
0.000000
0.000000
0.000000
0.000000
0.000000
0.000000
0.000000
0.000000
1.000000
1.000000
1.000000
1.000000
1.000000
1.000000
1.000000
1.000000
1.000000
1.000000
1.000000
1.000000
1.000000
1.000000
1.000000
1.000000
1.000000
1.000000
1.000000
1.000000
1.000000
1.000000
1.000000
1.000000
1.000000
1.000000
1.000000
1.000000
1.000000
1.000000
1.000000
1.000000
1.000000
1.000000
1.000000
1.000000
1.000000
1.000000
1.000000
1.000000
1.000000
1.000000
1.000000
1.000000
1.000000
1.000000
1.000000
1.000000
1.000000
0.000000
0.000000
0.000000
1.000000
1.000000
1.000000
1.000000
1.000000
1.000000
0.000000
0.000000
0.000000
0.000000
0.000000
0.000000
0.000000
0.000000
1.000000
1.000000
1.000000
1.000000
1.000000
1.000000
1.000000
1.000000
1.000000
1.000000
1.000000
1.000000
1.000000
1.000000
1.000000
1.000000
1.000000
1.000000
1.000000
1.000000
1.000000
1.000000
1.000000
1.000000
1.000000
1.000000
1.000000
1.000000
1.000000
1.000000
1.000000
1.000000
1.000000
1.000000
1.000000
1.000000
0.000000
1.000000
1.000000
1.000000
1.000000
1.000000
1.000000
1.000000
1.000000
1.000000
1.000000
1.000000
1.000000
1.000000
1.000000
1.000000
1.000000
1.000000
1.000000
1.000000
1.000000
1.000000
1.000000
1.000000
1.000000
1.000000
1.000000
1.000000
1.000000
1.000000
1.000000
1.000000
1.000000
1.000000
1.000000
1.000000
1.000000
1.000000
0.000000
0.000000
0.000000
0.000000
0.000000
0.000000
0.000000
0.000000
0.000000
0.000000
0.000000
0.000000
1.000000
0.000000
1.000000
1.000000
1.000000
1.000000
1.000000
1.000000
1.000000
1.000000
1.000000
1.000000
1.000000
1.000000
1.000000
1.000000
1.000000
1.000000
1.000000
1.000000
1.000000
1.000000
1.000000
1.000000
1.000000
1.000000
1.000000
1.000000
1.000000
1.000000
1.000000
1.000000
1.000000
1.000000
1.000000
1.000000
1.000000
1.000000
1.000000
1.000000
1.000000
1.000000
1.000000
1.000000
1.000000
1.000000
1.000000
1.000000
0.000000
0.000000
0.000000
1.000000
1.000000
1.000000
1.000000
1.000000
1.000000
1.000000
1.000000
0.000000
0.000000
0.000000
0.000000
0.000000
1.000000
1.000000
1.000000
1.000000
1.000000
1.000000
1.000000
1.000000
1.000000
1.000000
1.000000
1.000000
1.000000
1.000000
1.000000
1.000000
1.000000
1.000000
1.000000
1.000000
1.000000
1.000000
1.000000
1.000000
1.000000
1.000000
1.000000
1.000000
1.000000
1.000000
1.000000
1.000000
1.000000
1.000000
1.000000
1.000000
1.000000
1.000000
1.000000
1.000000
1.000000
1.000000
1.000000
1.000000
1.000000
1.000000
1.000000
1.000000
1.000000
1.000000
1.000000
1.000000
1.000000
1.000000
1.000000
1.000000
1.000000
1.000000
1.000000
1.000000
1.000000
1.000000
1.000000
1.000000
1.000000
1.000000
1.000000
1.000000
1.000000
1.000000
1.000000
1.000000
1.000000
1.000000
1.000000
1.000000
0.000000
0.000000
0.000000
0.000000
0.000000
0.000000
0.000000
0.000000
0.000000
0.000000
1.000000
1.000000
1.000000
1.000000
1.000000
1.000000
1.000000
1.000000
1.000000
1.000000
1.000000
1.000000
1.000000
1.000000
1.000000
1.000000
1.000000
1.000000
1.000000
1.000000
1.000000
1.000000
1.000000
1.000000
1.000000
1.000000
1.000000
1.000000
1.000000
1.000000
1.000000
1.000000
1.000000
1.000000
1.000000
1.000000
1.000000
1.000000
1.000000
1.000000
1.000000
1.000000
1.000000
1.000000
1.000000
1.000000
1.000000
1.000000
1.000000
0.000000
0.000000
1.000000
1.000000
1.000000
1.000000
1.000000
1.000000
1.000000
1.000000
1.000000
1.000000
1.000000
1.000000
1.000000
1.000000
1.000000
1.000000
1.000000
1.000000
1.000000
1.000000
1.000000
1.000000
1.000000
1.000000
1.000000
1.000000
1.000000
1.000000
1.000000
1.000000
1.000000
1.000000
1.000000
1.000000
1.000000
1.000000
1.000000
1.000000
1.000000
1.000000
1.000000
1.000000
1.000000
1.000000
1.000000
0.000000
0.000000
1.000000
1.000000
1.000000
1.000000
1.000000
1.000000
1.000000
1.000000
1.000000
1.000000
1.000000
1.000000
1.000000
1.000000
1.000000
1.000000
1.000000
1.000000
1.000000
1.000000
1.000000
1.000000
1.000000
1.000000
1.000000
1.000000
1.000000
1.000000
1.000000
1.000000
1.000000
1.000000
1.000000
1.000000
1.000000
1.000000
1.000000
1.000000
0.000000
0.000000
0.000000
0.000000
0.000000
0.000000
0.000000
0.000000
0.000000
0.000000
0.000000
0.000000
0.000000
0.000000
0.000000
0.000000
0.000000
0.000000
0.000000
0.000000
0.000000
0.000000
0.000000
0.000000
0.000000
0.000000
0.000000
0.000000
0.000000
0.000000
0.000000
0.000000
0.000000
0.000000
0.000000
0.000000
0.000000
0.000000
0.000000
0.000000
0.000000
0.000000
0.000000
0.000000
0.000000
0.000000
0.000000
0.000000
0.000000
0.000000
0.000000
0.000000
0.000000
0.000000
0.000000
0.000000
0.000000
0.000000
0.000000
0.000000
0.000000
0.000000
0.000000
0.000000
0.000000
0.000000
0.000000
0.000000
0.000000
0.000000
0.000000
0.000000
0.000000
0.000000
0.000000
0.000000
0.000000
0.000000
0.000000
0.000000
0.000000
0.000000
0.000000
0.000000
0.000000
0.000000
0.000000
0.000000
0.000000
0.000000
0.000000
0.000000
0.000000
0.000000
0.000000
0.000000
0.000000
0.000000
0.000000
0.000000
0.000000
0.000000
0.000000
0.000000
0.000000
0.000000
0.000000
0.000000
0.000000
0.000000
0.000000
0.000000
0.000000
0.000000
0.000000
0.000000
0.000000
0.000000
0.000000
0.000000
0.000000
0.000000
0.000000
0.000000
0.000000
0.000000
0.000000
0.000000
0.000000
0.000000
0.000000
0.000000
1.000000
1.000000
0.000000
0.000000
0.000000
0.000000
0.000000
0.000000
0.000000
0.000000
0.000000
0.000000
0.000000
1.000000
1.000000
1.000000
1.000000
1.000000
1.000000
1.000000
1.000000
1.000000
1.000000
1.000000
1.000000
1.000000
1.000000
1.000000
1.000000
1.000000
1.000000
1.000000
1.000000
1.000000
1.000000
1.000000
1.000000
1.000000
0.000000
0.000000
0.000000
0.000000
0.000000
0.000000
0.000000
0.000000
0.000000
0.000000
0.000000
0.000000
0.000000
1.000000
1.000000
1.000000
1.000000
1.000000
1.000000
0.000000
1.000000
1.000000
0.000000
1.000000
1.000000
1.000000
1.000000
1.000000
1.000000
1.000000
1.000000
1.000000
1.000000
0.000000
0.000000
0.000000
0.000000
0.000000
0.000000
0.000000
0.000000
0.000000
0.000000
0.000000
0.000000
0.000000
0.000000
0.000000
0.000000
0.000000
0.000000
0.000000
0.000000
0.000000
0.000000
0.000000
0.000000
0.000000
0.000000
0.000000
0.000000
0.000000
0.000000
0.000000
0.000000
0.000000
0.000000
0.000000
0.000000
0.000000
0.000000
0.000000
0.000000
0.000000
0.000000
0.000000
0.000000
0.000000
0.000000
0.000000
0.000000
0.000000
0.000000
0.000000
0.000000
0.000000
0.000000
0.000000
0.000000
0.000000
0.000000
0.000000
0.000000
0.000000
0.000000
0.000000
0.000000
0.000000
0.000000
0.000000
0.000000
0.000000
0.000000
0.000000
0.000000
0.000000
0.000000
0.000000
0.000000
0.000000
0.000000
0.000000
0.000000
0.000000
0.000000
0.000000
0.000000
0.000000
0.000000
0.000000
0.000000
0.000000
0.000000
0.000000
0.000000
0.000000
0.000000
0.000000
0.000000
0.000000
0.000000
0.000000
0.000000
0.000000
0.000000
0.000000
0.000000
0.000000
0.000000
0.000000
0.000000
0.000000
0.000000
0.000000
0.000000
0.000000
0.000000
0.000000
0.000000
0.000000
1.000000
1.000000
0.000000
0.000000
0.000000
0.000000
0.000000
0.000000
0.000000
0.000000
0.000000
0.000000
1.000000
1.000000
1.000000
1.000000
1.000000
1.000000
1.000000
1.000000
1.000000
1.000000
1.000000
1.000000
1.000000
0.000000
0.000000
0.000000
0.000000
0.000000
0.000000
1.000000
1.000000
1.000000
1.000000
1.000000
1.000000
1.000000
1.000000
1.000000
1.000000
1.000000
1.000000
1.000000
1.000000
1.000000
0.000000
0.000000
0.000000
0.000000
0.000000
0.000000
0.000000
0.000000
0.000000
0.000000
0.000000
0.000000
0.000000
0.000000
0.000000
0.000000
0.000000
0.000000
0.000000
0.000000
0.000000
0.000000
0.000000
0.000000
0.000000
0.000000
0.000000
0.000000
0.000000
0.000000
0.000000
0.000000
0.000000
0.000000
0.000000
0.000000
0.000000
0.000000
0.000000
0.000000
0.000000
0.000000
0.000000
0.000000
0.000000
0.000000
0.000000
0.000000
0.000000
0.000000
0.000000
0.000000
0.000000
0.000000
0.000000
0.000000
0.000000
0.000000
0.000000
0.000000
0.000000
0.000000
0.000000
0.000000
0.000000
0.000000
0.000000
0.000000
0.000000
0.000000
0.000000
0.000000
0.000000
0.000000
0.000000
0.000000
0.000000
0.000000
0.000000
0.000000
0.000000
0.000000
0.000000
0.000000
0.000000
0.000000
0.000000
0.000000
0.000000
0.000000
0.000000
0.000000
0.000000
0.000000
0.000000
0.000000
0.000000
0.000000
0.000000
0.000000
0.000000
0.000000
0.000000
0.000000
0.000000
0.000000
0.000000
0.000000
0.000000
0.000000
0.000000
0.000000
0.000000
0.000000
0.000000
1.000000
1.000000
1.000000
1.000000
1.000000
1.000000
0.000000
0.000000
0.000000
0.000000
0.000000
1.000000
1.000000
1.000000
1.000000
1.000000
0.000000
0.000000
1.000000
0.000000
0.000000
0.000000
0.000000
0.000000
0.000000
0.000000
0.000000
0.000000
0.000000
0.000000
0.000000
0.000000
1.000000
0.000000
1.000000
0.000000
0.000000
1.000000
1.000000
1.000000
1.000000
1.000000
1.000000
1.000000
1.000000
1.000000
1.000000
1.000000
1.000000
1.000000
1.000000
1.000000
1.000000
1.000000
1.000000
1.000000
1.000000
1.000000
1.000000
1.000000
1.000000
1.000000
1.000000
1.000000
1.000000
1.000000
1.000000
1.000000
1.000000
1.000000
1.000000
1.000000
1.000000
1.000000
1.000000
1.000000
1.000000
1.000000
1.000000
1.000000
1.000000
1.000000
1.000000
1.000000
1.000000
1.000000
1.000000
0.000000
0.000000
0.000000
0.000000
0.000000
0.000000
0.000000
0.000000
0.000000
0.000000
1.000000
1.000000
1.000000
1.000000
0.000000
1.000000
1.000000
1.000000
1.000000
1.000000
1.000000
1.000000
1.000000
1.000000
1.000000
1.000000
1.000000
1.000000
1.000000
1.000000
1.000000
1.000000
1.000000
1.000000
1.000000
1.000000
0.000000
0.000000
0.000000
0.000000
1.000000
1.000000
1.000000
1.000000
1.000000
1.000000
1.000000
1.000000
1.000000
1.000000
1.000000
1.000000
1.000000
1.000000
1.000000
1.000000
1.000000
1.000000
1.000000
1.000000
1.000000
1.000000
1.000000
1.000000
1.000000
1.000000
1.000000
1.000000
0.000000
0.000000
1.000000
1.000000
1.000000
1.000000
1.000000
1.000000
1.000000
1.000000
1.000000
1.000000
1.000000
1.000000
1.000000
1.000000
1.000000
1.000000
1.000000
1.000000
1.000000
1.000000
1.000000
1.000000
1.000000
1.000000
1.000000
1.000000
1.000000
1.000000
1.000000
1.000000
1.000000
1.000000
0.000000
1.000000
1.000000
1.000000
1.000000
1.000000
1.000000
1.000000
1.000000
1.000000
1.000000
0.000000
0.000000
0.000000
1.000000
0.000000
0.000000
0.000000
1.000000
1.000000
0.000000
1.000000
1.000000
1.000000
1.000000
1.000000
1.000000
1.000000
1.000000
1.000000
1.000000
1.000000
1.000000
1.000000
1.000000
1.000000
1.000000
1.000000
1.000000
1.000000
1.000000
1.000000
1.000000
1.000000
1.000000
1.000000
1.000000
1.000000
1.000000
1.000000
1.000000
1.000000
1.000000
1.000000
1.000000
1.000000
1.000000
1.000000
1.000000
1.000000
1.000000
1.000000
1.000000
1.000000
1.000000
1.000000
1.000000
0.000000
0.000000
0.000000
0.000000
0.000000
0.000000
0.000000
0.000000
0.000000
0.000000
0.000000
0.000000
0.000000
0.000000
1.000000
1.000000
1.000000
1.000000
1.000000
1.000000
1.000000
1.000000
1.000000
1.000000
1.000000
1.000000
1.000000
1.000000
1.000000
1.000000
1.000000
1.000000
1.000000
1.000000
0.000000
0.000000
0.000000
0.000000
0.000000
1.000000
1.000000
1.000000
1.000000
1.000000
1.000000
1.000000
1.000000
1.000000
1.000000
1.000000
1.000000
1.000000
1.000000
1.000000
1.000000
1.000000
1.000000
1.000000
1.000000
1.000000
1.000000
1.000000
1.000000
1.000000
1.000000
1.000000
1.000000
1.000000
1.000000
0.000000
1.000000
1.000000
1.000000
1.000000
1.000000
1.000000
1.000000
1.000000
1.000000
1.000000
1.000000
1.000000
1.000000
1.000000
1.000000
1.000000
1.000000
1.000000
1.000000
0.000000
0.000000
0.000000
0.000000
0.000000
0.000000
0.000000
0.000000
0.000000
0.000000
0.000000
0.000000
0.000000
0.000000
0.000000
0.000000
0.000000
0.000000
0.000000
0.000000
0.000000
0.000000
0.000000
0.000000
0.000000
0.000000
0.000000
0.000000
0.000000
0.000000
0.000000
0.000000
0.000000
0.000000
0.000000
0.000000
0.000000
0.000000
0.000000
0.000000
0.000000
0.000000
0.000000
0.000000
0.000000
0.000000
0.000000
0.000000
0.000000
0.000000
0.000000
0.000000
0.000000
0.000000
0.000000
0.000000
0.000000
0.000000
0.000000
0.000000
0.000000
0.000000
0.000000
0.000000
0.000000
0.000000
0.000000
0.000000
0.000000
0.000000
0.000000
0.000000
0.000000
0.000000
0.000000
0.000000
0.000000
0.000000
0.000000
0.000000
0.000000
0.000000
0.000000
0.000000
0.000000
0.000000
0.000000
0.000000
0.000000
0.000000
0.000000
0.000000
0.000000
0.000000
0.000000
0.000000
0.000000
0.000000
0.000000
0.000000
0.000000
0.000000
0.000000
0.000000
0.000000
0.000000
0.000000
0.000000
0.000000
0.000000
0.000000
0.000000
0.000000
0.000000
0.000000
0.000000
0.000000
0.000000
0.000000
1.000000
1.000000
1.000000
1.000000
1.000000
1.000000
1.000000
0.000000
0.000000
0.000000
0.000000
0.000000
0.000000
0.000000
0.000000
0.000000
0.000000
1.000000
1.000000
1.000000
1.000000
1.000000
0.000000
0.000000
1.000000
1.000000
1.000000
1.000000
1.000000
1.000000
1.000000
1.000000
1.000000
1.000000
1.000000
1.000000
1.000000
1.000000
1.000000
1.000000
1.000000
1.000000
1.000000
1.000000
1.000000
1.000000
1.000000
1.000000
1.000000
1.000000
1.000000
0.000000
0.000000
1.000000
1.000000
1.000000
0.000000
1.000000
1.000000
1.000000
1.000000
1.000000
1.000000
1.000000
1.000000
1.000000
1.000000
1.000000
1.000000
1.000000
1.000000
1.000000
1.000000
1.000000
1.000000
0.000000
0.000000
0.000000
0.000000
0.000000
0.000000
0.000000
0.000000
0.000000
1.000000
1.000000
1.000000
1.000000
1.000000
1.000000
1.000000
1.000000
1.000000
1.000000
1.000000
0.000000
0.000000
1.000000
1.000000
1.000000
1.000000
1.000000
1.000000
1.000000
1.000000
1.000000
1.000000
1.000000
1.000000
1.000000
1.000000
1.000000
1.000000
1.000000
1.000000
1.000000
1.000000
1.000000
1.000000
1.000000
1.000000
1.000000
1.000000
0.000000
0.000000
0.000000
1.000000
1.000000
1.000000
1.000000
1.000000
1.000000
1.000000
0.000000
0.000000
1.000000
1.000000
1.000000
1.000000
1.000000
1.000000
1.000000
1.000000
1.000000
1.000000
1.000000
1.000000
0.000000
0.000000
1.000000
1.000000
1.000000
1.000000
0.000000
0.000000
0.000000
0.000000
0.000000
0.000000
0.000000
0.000000
0.000000
0.000000
0.000000
0.000000
0.000000
0.000000
0.000000
0.000000
0.000000
0.000000
0.000000
0.000000
0.000000
0.000000
0.000000
0.000000
0.000000
0.000000
0.000000
0.000000
0.000000
0.000000
0.000000
0.000000
0.000000
0.000000
0.000000
0.000000
0.000000
0.000000
0.000000
0.000000
0.000000
0.000000
0.000000
0.000000
0.000000
0.000000
0.000000
0.000000
0.000000
0.000000
0.000000
0.000000
0.000000
0.000000
0.000000
0.000000
0.000000
0.000000
0.000000
0.000000
0.000000
0.000000
0.000000
0.000000
0.000000
0.000000
0.000000
0.000000
0.000000
0.000000
0.000000
0.000000
0.000000
0.000000
0.000000
0.000000
0.000000
0.000000
0.000000
0.000000
0.000000
0.000000
0.000000
0.000000
0.000000
0.000000
0.000000
0.000000
0.000000
0.000000
0.000000
0.000000
0.000000
0.000000
0.000000
0.000000
0.000000
0.000000
0.000000
0.000000
0.000000
0.000000
0.000000
0.000000
0.000000
0.000000
0.000000
0.000000
0.000000
0.000000
0.000000
0.000000
0.000000
0.000000
0.000000
0.000000
0.000000
0.000000
0.000000
0.000000
1.000000
1.000000
1.000000
1.000000
1.000000
1.000000
1.000000
1.000000
1.000000
1.000000
1.000000
1.000000
0.000000
0.000000
0.000000
0.000000
0.000000
1.000000
1.000000
1.000000
1.000000
1.000000
1.000000
1.000000
1.000000
1.000000
0.000000
0.000000
0.000000
0.000000
0.000000
0.000000
0.000000
0.000000
0.000000
0.000000
0.000000
0.000000
0.000000
0.000000
0.000000
1.000000
1.000000
1.000000
1.000000
1.000000
0.000000
1.000000
0.000000
0.000000
0.000000
0.000000
0.000000
0.000000
0.000000
0.000000
1.000000
1.000000
1.000000
1.000000
1.000000
1.000000
1.000000
1.000000
1.000000
1.000000
1.000000
1.000000
1.000000
1.000000
1.000000
1.000000
1.000000
1.000000
1.000000
1.000000
1.000000
0.000000
0.000000
0.000000
0.000000
0.000000
0.000000
1.000000
1.000000
1.000000
1.000000
1.000000
1.000000
1.000000
1.000000
1.000000
1.000000
1.000000
1.000000
1.000000
1.000000
1.000000
1.000000
1.000000
1.000000
1.000000
1.000000
1.000000
1.000000
0.000000
0.000000
1.000000
1.000000
1.000000
1.000000
1.000000
1.000000
1.000000
1.000000
1.000000
1.000000
1.000000
1.000000
1.000000
1.000000
1.000000
1.000000
1.000000
1.000000
1.000000
1.000000
1.000000
1.000000
0.000000
0.000000
0.000000
0.000000
0.000000
0.000000
0.000000
1.000000
1.000000
1.000000
1.000000
1.000000
1.000000
0.000000
0.000000
0.000000
0.000000
1.000000
1.000000
1.000000
1.000000
1.000000
1.000000
1.000000
0.000000
0.000000
1.000000
1.000000
1.000000
1.000000
1.000000
1.000000
1.000000
1.000000
0.000000
1.000000
1.000000
1.000000
1.000000
0.000000
1.000000
1.000000
1.000000
0.000000
1.000000
1.000000
1.000000
1.000000
1.000000
1.000000
0.000000
1.000000
1.000000
0.000000
0.000000
0.000000
0.000000
1.000000
1.000000
1.000000
1.000000
1.000000
1.000000
1.000000
1.000000
1.000000
1.000000
1.000000
1.000000
1.000000
1.000000
0.000000
0.000000
0.000000
0.000000
0.000000
0.000000
0.000000
0.000000
0.000000
0.000000
0.000000
0.000000
0.000000
0.000000
0.000000
0.000000
0.000000
0.000000
0.000000
0.000000
0.000000
0.000000
0.000000
0.000000
0.000000
0.000000
0.000000
0.000000
0.000000
0.000000
0.000000
0.000000
0.000000
0.000000
0.000000
0.000000
0.000000
0.000000
0.000000
0.000000
0.000000
0.000000
0.000000
0.000000
0.000000
0.000000
0.000000
0.000000
0.000000
0.000000
0.000000
0.000000
0.000000
0.000000
0.000000
0.000000
0.000000
0.000000
0.000000
0.000000
0.000000
0.000000
0.000000
0.000000
0.000000
0.000000
0.000000
0.000000
0.000000
0.000000
0.000000
0.000000
0.000000
0.000000
0.000000
0.000000
0.000000
0.000000
0.000000
0.000000
0.000000
0.000000
0.000000
0.000000
0.000000
0.000000
0.000000
0.000000
0.000000
0.000000
0.000000
0.000000
0.000000
0.000000
0.000000
0.000000
0.000000
0.000000
0.000000
0.000000
0.000000
0.000000
0.000000
0.000000
0.000000
0.000000
0.000000
0.000000
0.000000
0.000000
0.000000
0.000000
0.000000
0.000000
0.000000
0.000000
0.000000
0.000000
0.000000
0.000000
0.000000
0.000000
0.000000
0.000000
0.000000
0.000000
0.000000
0.000000
1.000000
1.000000
1.000000
1.000000
0.000000
0.000000
1.000000
1.000000
1.000000
0.000000
1.000000
1.000000
1.000000
1.000000
1.000000
1.000000
0.000000
0.000000
1.000000
1.000000
1.000000
1.000000
1.000000
1.000000
1.000000
1.000000
0.000000
0.000000
0.000000
0.000000
0.000000
1.000000
1.000000
1.000000
1.000000
1.000000
0.000000
0.000000
0.000000
0.000000
0.000000
0.000000
0.000000
0.000000
0.000000
0.000000
0.000000
0.000000
1.000000
1.000000
1.000000
0.000000
0.000000
0.000000
0.000000
0.000000
0.000000
1.000000
1.000000
1.000000
1.000000
1.000000
0.000000
0.000000
0.000000
0.000000
0.000000
0.000000
0.000000
0.000000
0.000000
0.000000
0.000000
0.000000
0.000000
0.000000
0.000000
1.000000
1.000000
1.000000
1.000000
1.000000
1.000000
1.000000
1.000000
1.000000
0.000000
0.000000
0.000000
0.000000
0.000000
0.000000
0.000000
0.000000
0.000000
0.000000
0.000000
0.000000
0.000000
0.000000
1.000000
1.000000
1.000000
1.000000
1.000000
1.000000
1.000000
1.000000
0.000000
0.000000
0.000000
0.000000
0.000000
0.000000
0.000000
0.000000
0.000000
1.000000
1.000000
1.000000
1.000000
1.000000
1.000000
1.000000
1.000000
1.000000
1.000000
1.000000
1.000000
1.000000
0.000000
0.000000
0.000000
0.000000
0.000000
0.000000
0.000000
0.000000
0.000000
0.000000
0.000000
0.000000
0.000000
0.000000
0.000000
0.000000
0.000000
0.000000
0.000000
0.000000
0.000000
0.000000
0.000000
0.000000
0.000000
0.000000
0.000000
0.000000
0.000000
0.000000
0.000000
0.000000
0.000000
0.000000
0.000000
0.000000
0.000000
0.000000
0.000000
0.000000
0.000000
0.000000
0.000000
0.000000
0.000000
0.000000
0.000000
0.000000
0.000000
0.000000
0.000000
0.000000
0.000000
0.000000
0.000000
0.000000
0.000000
0.000000
0.000000
0.000000
0.000000
0.000000
0.000000
0.000000
0.000000
0.000000
0.000000
0.000000
0.000000
0.000000
0.000000
0.000000
0.000000
0.000000
0.000000
0.000000
0.000000
0.000000
0.000000
0.000000
0.000000
0.000000
0.000000
0.000000
0.000000
0.000000
0.000000
0.000000
0.000000
0.000000
0.000000
0.000000
0.000000
0.000000
0.000000
0.000000
0.000000
0.000000
0.000000
0.000000
0.000000
0.000000
0.000000
0.000000
0.000000
0.000000
0.000000
0.000000
0.000000
0.000000
0.000000
0.000000
0.000000
0.000000
0.000000
0.000000
1.000000
1.000000
1.000000
1.000000
1.000000
1.000000
1.000000
1.000000
1.000000
0.000000
0.000000
0.000000
0.000000
0.000000
0.000000
0.000000
0.000000
0.000000
0.000000
0.000000
0.000000
0.000000
0.000000
0.000000
0.000000
0.000000
0.000000
0.000000
0.000000
0.000000
0.000000
0.000000
0.000000
0.000000
1.000000
0.000000
0.000000
0.000000
0.000000
0.000000
0.000000
0.000000
0.000000
0.000000
0.000000
1.000000
1.000000
1.000000
1.000000
1.000000
1.000000
0.000000
1.000000
1.000000
1.000000
1.000000
1.000000
1.000000
1.000000
1.000000
0.000000
1.000000
1.000000
1.000000
1.000000
1.000000
1.000000
1.000000
1.000000
1.000000
1.000000
1.000000
1.000000
1.000000
1.000000
1.000000
0.000000
1.000000
1.000000
1.000000
1.000000
1.000000
1.000000
1.000000
1.000000
1.000000
0.000000
0.000000
0.000000
0.000000
0.000000
1.000000
1.000000
1.000000
1.000000
0.000000
1.000000
1.000000
1.000000
1.000000
1.000000
1.000000
1.000000
1.000000
1.000000
1.000000
1.000000
0.000000
0.000000
0.000000
0.000000
0.000000
0.000000
0.000000
0.000000
0.000000
1.000000
1.000000
1.000000
1.000000
1.000000
1.000000
1.000000
1.000000
1.000000
0.000000
0.000000
0.000000
0.000000
0.000000
0.000000
0.000000
0.000000
0.000000
0.000000
0.000000
0.000000
1.000000
1.000000
1.000000
1.000000
1.000000
1.000000
1.000000
0.000000
0.000000
0.000000
0.000000
0.000000
0.000000
0.000000
0.000000
0.000000
0.000000
0.000000
1.000000
1.000000
0.000000
1.000000
1.000000
1.000000
1.000000
1.000000
0.000000
0.000000
0.000000
0.000000
0.000000
0.000000
0.000000
0.000000
0.000000
0.000000
0.000000
0.000000
0.000000
0.000000
0.000000
0.000000
0.000000
0.000000
0.000000
0.000000
0.000000
0.000000
0.000000
0.000000
0.000000
0.000000
0.000000
0.000000
1.000000
1.000000
0.000000
0.000000
0.000000
0.000000
0.000000
0.000000
0.000000
0.000000
0.000000
0.000000
0.000000
0.000000
0.000000
0.000000
0.000000
0.000000
0.000000
0.000000
0.000000
0.000000
0.000000
0.000000
0.000000
0.000000
0.000000
0.000000
0.000000
0.000000
0.000000
0.000000
0.000000
0.000000
0.000000
0.000000
0.000000
0.000000
0.000000
0.000000
0.000000
0.000000
0.000000
0.000000
0.000000
0.000000
0.000000
0.000000
0.000000
0.000000
0.000000
0.000000
0.000000
0.000000
0.000000
0.000000
0.000000
0.000000
0.000000
0.000000
0.000000
0.000000
0.000000
0.000000
0.000000
0.000000
0.000000
0.000000
0.000000
0.000000
1.000000
1.000000
0.000000
1.000000
1.000000
0.000000
0.000000
0.000000
0.000000
0.000000
0.000000
0.000000
0.000000
0.000000
0.000000
0.000000
0.000000
0.000000
0.000000
0.000000
0.000000
0.000000
0.000000
0.000000
0.000000
0.000000
0.000000
0.000000
0.000000
0.000000
0.000000
0.000000
0.000000
0.000000
0.000000
0.000000
0.000000
0.000000
0.000000
0.000000
0.000000
0.000000
0.000000
1.000000
1.000000
0.000000
0.000000
0.000000
0.000000
0.000000
0.000000
0.000000
0.000000
0.000000
0.000000
0.000000
1.000000
1.000000
0.000000
0.000000
0.000000
0.000000
0.000000
0.000000
0.000000
0.000000
0.000000
0.000000
0.000000
0.000000
0.000000
0.000000
0.000000
0.000000
0.000000
0.000000
0.000000
0.000000
1.000000
1.000000
1.000000
1.000000
0.000000
0.000000
0.000000
1.000000
1.000000
1.000000
1.000000
1.000000
1.000000
1.000000
0.000000
0.000000
0.000000
1.000000
1.000000
1.000000
1.000000
1.000000
1.000000
1.000000
1.000000
0.000000
0.000000
0.000000
0.000000
0.000000
0.000000
0.000000
0.000000
0.000000
0.000000
1.000000
1.000000
1.000000
0.000000
0.000000
0.000000
0.000000
0.000000
0.000000
0.000000
0.000000
0.000000
0.000000
0.000000
0.000000
0.000000
0.000000
0.000000
0.000000
0.000000
0.000000
0.000000
0.000000
0.000000
0.000000
0.000000
0.000000
1.000000
0.000000
0.000000
0.000000
0.000000
0.000000
0.000000
0.000000
0.000000
0.000000
0.000000
1.000000
1.000000
1.000000
1.000000
0.000000
0.000000
0.000000
0.000000
0.000000
0.000000
0.000000
0.000000
0.000000
0.000000
0.000000
0.000000
0.000000
0.000000
0.000000
0.000000
0.000000
0.000000
0.000000
0.000000
0.000000
0.000000
0.000000
0.000000
0.000000
0.000000
0.000000
0.000000
0.000000
0.000000
0.000000
0.000000
0.000000
0.000000
0.000000
0.000000
0.000000
0.000000
0.000000
1.000000
1.000000
1.000000
1.000000
0.000000
0.000000
0.000000
0.000000
0.000000
0.000000
0.000000
0.000000
0.000000
0.000000
0.000000
0.000000
0.000000
0.000000
0.000000
0.000000
0.000000
0.000000
0.000000
0.000000
0.000000
0.000000
0.000000
0.000000
0.000000
0.000000
0.000000
0.000000
0.000000
0.000000
0.000000
0.000000
0.000000
0.000000
0.000000
0.000000
0.000000
0.000000
0.000000
0.000000
0.000000
0.000000
0.000000
0.000000
0.000000
0.000000
1.000000
0.000000
1.000000
0.000000
0.000000
0.000000
0.000000
1.000000
1.000000
1.000000
1.000000
1.000000
1.000000
1.000000
1.000000
1.000000
1.000000
1.000000
1.000000
1.000000
1.000000
1.000000
0.000000
0.000000
0.000000
0.000000
0.000000
1.000000
1.000000
1.000000
1.000000
1.000000
1.000000
1.000000
1.000000
1.000000
1.000000
1.000000
1.000000
1.000000
1.000000
1.000000
1.000000
1.000000
1.000000
1.000000
0.000000
0.000000
1.000000
0.000000
0.000000
1.000000
1.000000
1.000000
1.000000
1.000000
1.000000
0.000000
0.000000
0.000000
0.000000
0.000000
0.000000
0.000000
0.000000
0.000000
0.000000
0.000000
0.000000
0.000000
0.000000
0.000000
0.000000
0.000000
0.000000
0.000000
0.000000
0.000000
0.000000
0.000000
0.000000
0.000000
0.000000
0.000000
0.000000
0.000000
0.000000
0.000000
0.000000
0.000000
0.000000
0.000000
0.000000
0.000000
0.000000
0.000000
0.000000
0.000000
0.000000
0.000000
0.000000
0.000000
0.000000
0.000000
0.000000
0.000000
0.000000
0.000000
0.000000
0.000000
0.000000
0.000000
0.000000
0.000000
0.000000
0.000000
0.000000
1.000000
0.000000
0.000000
0.000000
0.000000
0.000000
0.000000
0.000000
0.000000
0.000000
0.000000
0.000000
0.000000
1.000000
1.000000
1.000000
1.000000
1.000000
1.000000
0.000000
0.000000
1.000000
1.000000
1.000000
1.000000
1.000000
1.000000
1.000000
0.000000
0.000000
0.000000
0.000000
0.000000
0.000000
0.000000
0.000000
0.000000
0.000000
0.000000
0.000000
0.000000
0.000000
0.000000
0.000000
0.000000
0.000000
0.000000
0.000000
0.000000
0.000000
0.000000
0.000000
0.000000
0.000000
0.000000
1.000000
1.000000
1.000000
1.000000
1.000000
1.000000
1.000000
1.000000
1.000000
1.000000
1.000000
1.000000
1.000000
1.000000
1.000000
1.000000
1.000000
1.000000
1.000000
1.000000
1.000000
1.000000
1.000000
1.000000
1.000000
1.000000
1.000000
1.000000
1.000000
0.000000
0.000000
0.000000
0.000000
0.000000
1.000000
1.000000
1.000000
1.000000
1.000000
1.000000
1.000000
1.000000
1.000000
1.000000
0.000000
0.000000
1.000000
1.000000
1.000000
1.000000
0.000000
0.000000
0.000000
0.000000
0.000000
0.000000
0.000000
0.000000
0.000000
0.000000
0.000000
0.000000
1.000000
1.000000
1.000000
0.000000
1.000000
1.000000
1.000000
1.000000
1.000000
1.000000
0.000000
0.000000
0.000000
0.000000
0.000000
1.000000
1.000000
1.000000
1.000000
1.000000
1.000000
1.000000
1.000000
0.000000
0.000000
0.000000
0.000000
0.000000
0.000000
0.000000
0.000000
0.000000
0.000000
0.000000
0.000000
0.000000
0.000000
0.000000
0.000000
0.000000
0.000000
0.000000
0.000000
0.000000
0.000000
0.000000
0.000000
0.000000
0.000000
0.000000
0.000000
0.000000
0.000000
0.000000
0.000000
0.000000
0.000000
0.000000
0.000000
0.000000
0.000000
0.000000
0.000000
0.000000
0.000000
0.000000
1.000000
1.000000
0.000000
0.000000
0.000000
0.000000
0.000000
0.000000
0.000000
0.000000
0.000000
1.000000
1.000000
0.000000
0.000000
0.000000
0.000000
0.000000
0.000000
1.000000
1.000000
1.000000
1.000000
0.000000
0.000000
0.000000
0.000000
0.000000
0.000000
0.000000
0.000000
0.000000
0.000000
0.000000
0.000000
0.000000
0.000000
0.000000
0.000000
0.000000
0.000000
0.000000
0.000000
0.000000
0.000000
0.000000
0.000000
0.000000
0.000000
0.000000
0.000000
0.000000
0.000000
0.000000
0.000000
0.000000
0.000000
0.000000
0.000000
0.000000
0.000000
0.000000
0.000000
0.000000
0.000000
0.000000
0.000000
0.000000
0.000000
0.000000
0.000000
0.000000
0.000000
0.000000
0.000000
0.000000
0.000000
0.000000
0.000000
0.000000
0.000000
0.000000
0.000000
0.000000
0.000000
0.000000
1.000000
0.000000
0.000000
1.000000
1.000000
1.000000
1.000000
1.000000
1.000000
1.000000
1.000000
1.000000
1.000000
1.000000
1.000000
1.000000
0.000000
0.000000
0.000000
0.000000
0.000000
0.000000
1.000000
1.000000
1.000000
1.000000
1.000000
1.000000
1.000000
1.000000
1.000000
0.000000
0.000000
0.000000
0.000000
0.000000
0.000000
0.000000
0.000000
0.000000
0.000000
0.000000
0.000000
0.000000
0.000000
0.000000
0.000000
0.000000
0.000000
0.000000
0.000000
0.000000
0.000000
0.000000
0.000000
0.000000
0.000000
0.000000
0.000000
0.000000
0.000000
0.000000
0.000000
0.000000
0.000000
0.000000
0.000000
0.000000
0.000000
0.000000
0.000000
0.000000
0.000000
0.000000
1.000000
0.000000
0.000000
0.000000
0.000000
0.000000
0.000000
0.000000
0.000000
0.000000
0.000000
0.000000
0.000000
0.000000
0.000000
0.000000
0.000000
0.000000
0.000000
0.000000
0.000000
0.000000
0.000000
0.000000
0.000000
0.000000
0.000000
0.000000
0.000000
0.000000
0.000000
0.000000
0.000000
0.000000
0.000000
0.000000
0.000000
0.000000
0.000000
0.000000
0.000000
0.000000
0.000000
0.000000
0.000000
0.000000
0.000000
0.000000
0.000000
0.000000
0.000000
0.000000
0.000000
0.000000
0.000000
0.000000
0.000000
0.000000
1.000000
1.000000
0.000000
1.000000
1.000000
1.000000
0.000000
0.000000
0.000000
0.000000
0.000000
0.000000
1.000000
0.000000
0.000000
0.000000
0.000000
0.000000
0.000000
0.000000
0.000000
0.000000
0.000000
0.000000
0.000000
0.000000
0.000000
0.000000
0.000000
0.000000
0.000000
0.000000
0.000000
0.000000
0.000000
0.000000
0.000000
0.000000
0.000000
0.000000
0.000000
0.000000
0.000000
0.000000
0.000000
0.000000
0.000000
0.000000
0.000000
0.000000
0.000000
1.000000
1.000000
1.000000
1.000000
1.000000
1.000000
1.000000
1.000000
1.000000
1.000000
1.000000
1.000000
1.000000
1.000000
0.000000
0.000000
0.000000
0.000000
0.000000
1.000000
1.000000
1.000000
1.000000
1.000000
1.000000
1.000000
1.000000
1.000000
1.000000
0.000000
0.000000
0.000000
0.000000
0.000000
0.000000
0.000000
0.000000
0.000000
0.000000
0.000000
0.000000
0.000000
0.000000
0.000000
0.000000
0.000000
0.000000
0.000000
0.000000
0.000000
0.000000
0.000000
0.000000
0.000000
0.000000
0.000000
0.000000
0.000000
0.000000
0.000000
1.000000
1.000000
1.000000
1.000000
1.000000
0.000000
0.000000
0.000000
0.000000
0.000000
0.000000
0.000000
0.000000
0.000000
0.000000
0.000000
0.000000
0.000000
0.000000
0.000000
0.000000
0.000000
0.000000
0.000000
0.000000
0.000000
0.000000
0.000000
0.000000
0.000000
0.000000
0.000000
0.000000
0.000000
0.000000
0.000000
0.000000
0.000000
0.000000
0.000000
0.000000
0.000000
0.000000
0.000000
0.000000
0.000000
0.000000
0.000000
0.000000
0.000000
0.000000
0.000000
0.000000
0.000000
0.000000
0.000000
0.000000
0.000000
0.000000
0.000000
0.000000
0.000000
0.000000
0.000000
0.000000
0.000000
0.000000
0.000000
0.000000
0.000000
0.000000
0.000000
0.000000
0.000000
0.000000
0.000000
0.000000
0.000000
0.000000
0.000000
0.000000
0.000000
0.000000
0.000000
0.000000
0.000000
0.000000
0.000000
0.000000
0.000000
0.000000
0.000000
0.000000
0.000000
1.000000
1.000000
0.000000
1.000000
1.000000
0.000000
0.000000
0.000000
0.000000
0.000000
0.000000
0.000000
0.000000
0.000000
0.000000
0.000000
0.000000
0.000000
0.000000
0.000000
0.000000
0.000000
0.000000
0.000000
0.000000
0.000000
0.000000
0.000000
0.000000
0.000000
0.000000
0.000000
0.000000
0.000000
0.000000
0.000000
0.000000
0.000000
0.000000
0.000000
0.000000
0.000000
0.000000
0.000000
0.000000
0.000000
0.000000
0.000000
0.000000
0.000000
0.000000
0.000000
0.000000
0.000000
0.000000
0.000000
0.000000
0.000000
0.000000
0.000000
0.000000
0.000000
0.000000
0.000000
0.000000
0.000000
0.000000
0.000000
0.000000
0.000000
0.000000
0.000000
0.000000
0.000000
0.000000
0.000000
0.000000
0.000000
0.000000
0.000000
0.000000
0.000000
0.000000
0.000000
0.000000
0.000000
0.000000
0.000000
0.000000
0.000000
0.000000
0.000000
0.000000
0.000000
0.000000
1.000000
1.000000
1.000000
1.000000
1.000000
1.000000
1.000000
1.000000
1.000000
1.000000
1.000000
1.000000
1.000000
1.000000
1.000000
0.000000
0.000000
0.000000
0.000000
1.000000
1.000000
1.000000
1.000000
1.000000
1.000000
1.000000
1.000000
1.000000
1.000000
0.000000
1.000000
0.000000
0.000000
0.000000
0.000000
0.000000
0.000000
0.000000
0.000000
0.000000
0.000000
0.000000
0.000000
0.000000
0.000000
0.000000
0.000000
0.000000
0.000000
0.000000
0.000000
0.000000
0.000000
0.000000
0.000000
0.000000
0.000000
0.000000
0.000000
0.000000
0.000000
0.000000
0.000000
0.000000
0.000000
0.000000
0.000000
0.000000
0.000000
0.000000
0.000000
0.000000
0.000000
0.000000
0.000000
0.000000
0.000000
0.000000
0.000000
0.000000
0.000000
0.000000
0.000000
0.000000
0.000000
0.000000
0.000000
0.000000
0.000000
0.000000
0.000000
1.000000
1.000000
0.000000
1.000000
1.000000
1.000000
1.000000
0.000000
0.000000
0.000000
0.000000
0.000000
0.000000
0.000000
0.000000
0.000000
0.000000
0.000000
0.000000
0.000000
0.000000
0.000000
0.000000
0.000000
0.000000
0.000000
0.000000
0.000000
0.000000
0.000000
0.000000
0.000000
0.000000
0.000000
0.000000
0.000000
0.000000
0.000000
0.000000
0.000000
0.000000
0.000000
0.000000
0.000000
0.000000
0.000000
0.000000
0.000000
0.000000
0.000000
0.000000
0.000000
0.000000
0.000000
0.000000
0.000000
0.000000
0.000000
0.000000
0.000000
0.000000
0.000000
0.000000
0.000000
0.000000
0.000000
0.000000
0.000000
0.000000
0.000000
0.000000
0.000000
0.000000
0.000000
0.000000
0.000000
0.000000
0.000000
0.000000
0.000000
0.000000
0.000000
1.000000
0.000000
0.000000
0.000000
0.000000
0.000000
0.000000
0.000000
0.000000
0.000000
0.000000
1.000000
1.000000
1.000000
1.000000
1.000000
1.000000
1.000000
1.000000
1.000000
1.000000
1.000000
1.000000
1.000000
1.000000
1.000000
1.000000
0.000000
0.000000
0.000000
0.000000
1.000000
1.000000
1.000000
1.000000
1.000000
1.000000
1.000000
1.000000
1.000000
1.000000
1.000000
0.000000
0.000000
0.000000
0.000000
0.000000
0.000000
0.000000
0.000000
0.000000
1.000000
1.000000
0.000000
0.000000
0.000000
0.000000
0.000000
0.000000
0.000000
0.000000
0.000000
0.000000
0.000000
0.000000
0.000000
0.000000
0.000000
0.000000
0.000000
0.000000
0.000000
0.000000
0.000000
0.000000
0.000000
0.000000
0.000000
0.000000
0.000000
0.000000
0.000000
0.000000
0.000000
0.000000
0.000000
0.000000
0.000000
0.000000
0.000000
0.000000
0.000000
0.000000
0.000000
0.000000
0.000000
0.000000
0.000000
0.000000
0.000000
0.000000
0.000000
0.000000
0.000000
0.000000
0.000000
0.000000
0.000000
0.000000
0.000000
0.000000
0.000000
0.000000
0.000000
0.000000
0.000000
0.000000
0.000000
0.000000
0.000000
0.000000
1.000000
1.000000
0.000000
1.000000
1.000000
1.000000
1.000000
1.000000
1.000000
0.000000
0.000000
0.000000
0.000000
0.000000
0.000000
0.000000
0.000000
0.000000
0.000000
0.000000
0.000000
0.000000
0.000000
0.000000
0.000000
0.000000
0.000000
0.000000
0.000000
0.000000
0.000000
0.000000
0.000000
0.000000
0.000000
0.000000
0.000000
0.000000
0.000000
0.000000
0.000000
0.000000
0.000000
0.000000
0.000000
0.000000
0.000000
0.000000
0.000000
0.000000
0.000000
0.000000
0.000000
0.000000
0.000000
0.000000
0.000000
0.000000
0.000000
0.000000
0.000000
0.000000
0.000000
0.000000
0.000000
0.000000
0.000000
0.000000
0.000000
0.000000
0.000000
0.000000
0.000000
0.000000
0.000000
0.000000
0.000000
0.000000
0.000000
0.000000
0.000000
0.000000
0.000000
0.000000
0.000000
0.000000
0.000000
0.000000
0.000000
0.000000
0.000000
0.000000
0.000000
0.000000
0.000000
0.000000
0.000000
0.000000
0.000000
0.000000
0.000000
0.000000
0.000000
0.000000
0.000000
0.000000
0.000000
0.000000
0.000000
0.000000
0.000000
0.000000
0.000000
0.000000
0.000000
0.000000
0.000000
0.000000
0.000000
0.000000
0.000000
0.000000
1.000000
1.000000
1.000000
1.000000
1.000000
1.000000
1.000000
1.000000
1.000000
1.000000
1.000000
1.000000
0.000000
1.000000
0.000000
1.000000
1.000000
1.000000
1.000000
1.000000
1.000000
1.000000
1.000000
1.000000
1.000000
1.000000
1.000000
1.000000
1.000000
0.000000
0.000000
0.000000
0.000000
0.000000
0.000000
0.000000
0.000000
0.000000
0.000000
0.000000
0.000000
0.000000
0.000000
0.000000
0.000000
0.000000
0.000000
0.000000
0.000000
0.000000
0.000000
0.000000
0.000000
0.000000
0.000000
0.000000
0.000000
0.000000
0.000000
0.000000
0.000000
0.000000
0.000000
0.000000
0.000000
0.000000
0.000000
0.000000
0.000000
0.000000
0.000000
0.000000
0.000000
0.000000
0.000000
0.000000
0.000000
0.000000
0.000000
0.000000
0.000000
0.000000
0.000000
0.000000
0.000000
0.000000
0.000000
0.000000
0.000000
0.000000
0.000000
0.000000
0.000000
0.000000
0.000000
0.000000
0.000000
0.000000
0.000000
0.000000
0.000000
0.000000
0.000000
0.000000
0.000000
0.000000
0.000000
0.000000
1.000000
1.000000
1.000000
1.000000
0.000000
1.000000
1.000000
1.000000
1.000000
0.000000
0.000000
0.000000
0.000000
0.000000
0.000000
0.000000
0.000000
0.000000
0.000000
0.000000
0.000000
0.000000
0.000000
0.000000
0.000000
0.000000
0.000000
0.000000
0.000000
0.000000
0.000000
0.000000
0.000000
0.000000
0.000000
0.000000
0.000000
0.000000
0.000000
0.000000
0.000000
0.000000
0.000000
0.000000
0.000000
0.000000
0.000000
1.000000
1.000000
1.000000
0.000000
0.000000
1.000000
0.000000
0.000000
0.000000
0.000000
0.000000
0.000000
0.000000
0.000000
0.000000
0.000000
0.000000
0.000000
0.000000
0.000000
0.000000
0.000000
0.000000
0.000000
0.000000
0.000000
0.000000
0.000000
0.000000
0.000000
0.000000
0.000000
0.000000
0.000000
0.000000
0.000000
0.000000
0.000000
0.000000
0.000000
0.000000
0.000000
0.000000
0.000000
0.000000
0.000000
0.000000
0.000000
0.000000
0.000000
0.000000
0.000000
0.000000
0.000000
0.000000
0.000000
0.000000
0.000000
0.000000
0.000000
0.000000
0.000000
0.000000
0.000000
0.000000
0.000000
0.000000
0.000000
0.000000
0.000000
0.000000
0.000000
0.000000
0.000000
0.000000
0.000000
0.000000
0.000000
0.000000
0.000000
0.000000
0.000000
0.000000
0.000000
0.000000
0.000000
0.000000
0.000000
0.000000
0.000000
0.000000
0.000000
0.000000
0.000000
0.000000
0.000000
0.000000
0.000000
0.000000
0.000000
0.000000
0.000000
0.000000
0.000000
0.000000
0.000000
0.000000
0.000000
0.000000
0.000000
1.000000
0.000000
0.000000
0.000000
0.000000
0.000000
0.000000
0.000000
0.000000
0.000000
0.000000
0.000000
0.000000
0.000000
0.000000
0.000000
0.000000
0.000000
0.000000
0.000000
0.000000
0.000000
0.000000
1.000000
1.000000
1.000000
1.000000
0.000000
0.000000
1.000000
1.000000
1.000000
1.000000
1.000000
1.000000
1.000000
0.000000
0.000000
0.000000
0.000000
0.000000
0.000000
0.000000
0.000000
0.000000
0.000000
0.000000
0.000000
0.000000
1.000000
1.000000
1.000000
1.000000
0.000000
0.000000
0.000000
0.000000
0.000000
0.000000
0.000000
0.000000
0.000000
0.000000
1.000000
1.000000
0.000000
1.000000
1.000000
1.000000
1.000000
1.000000
1.000000
1.000000
0.000000
0.000000
0.000000
1.000000
1.000000
1.000000
1.000000
0.000000
0.000000
0.000000
0.000000
0.000000
0.000000
0.000000
0.000000
0.000000
0.000000
0.000000
0.000000
0.000000
0.000000
0.000000
0.000000
0.000000
0.000000
0.000000
0.000000
0.000000
0.000000
0.000000
0.000000
0.000000
0.000000
0.000000
0.000000
0.000000
0.000000
0.000000
0.000000
0.000000
0.000000
0.000000
0.000000
0.000000
0.000000
0.000000
0.000000
0.000000
0.000000
0.000000
0.000000
0.000000
0.000000
0.000000
0.000000
0.000000
0.000000
0.000000
0.000000
0.000000
0.000000
0.000000
0.000000
0.000000
0.000000
0.000000
0.000000
0.000000
0.000000
0.000000
0.000000
0.000000
0.000000
0.000000
0.000000
0.000000
0.000000
0.000000
0.000000
1.000000
1.000000
1.000000
1.000000
1.000000
1.000000
1.000000
1.000000
1.000000
1.000000
1.000000
1.000000
1.000000
1.000000
1.000000
0.000000
0.000000
0.000000
0.000000
0.000000
0.000000
0.000000
0.000000
0.000000
0.000000
0.000000
0.000000
0.000000
0.000000
0.000000
0.000000
0.000000
0.000000
0.000000
0.000000
0.000000
0.000000
0.000000
0.000000
0.000000
0.000000
0.000000
0.000000
1.000000
0.000000
0.000000
0.000000
0.000000
0.000000
0.000000
0.000000
0.000000
0.000000
0.000000
0.000000
0.000000
0.000000
0.000000
0.000000
0.000000
0.000000
0.000000
0.000000
0.000000
0.000000
0.000000
0.000000
0.000000
0.000000
0.000000
0.000000
0.000000
0.000000
0.000000
1.000000
1.000000
1.000000
1.000000
1.000000
1.000000
1.000000
1.000000
1.000000
0.000000
1.000000
1.000000
1.000000
1.000000
0.000000
0.000000
0.000000
0.000000
0.000000
0.000000
0.000000
0.000000
0.000000
0.000000
0.000000
0.000000
0.000000
0.000000
0.000000
0.000000
0.000000
0.000000
0.000000
1.000000
0.000000
0.000000
1.000000
1.000000
1.000000
1.000000
1.000000
1.000000
1.000000
0.000000
0.000000
0.000000
0.000000
0.000000
0.000000
0.000000
0.000000
0.000000
0.000000
0.000000
0.000000
0.000000
0.000000
0.000000
0.000000
0.000000
0.000000
0.000000
0.000000
0.000000
0.000000
0.000000
0.000000
0.000000
0.000000
0.000000
0.000000
0.000000
0.000000
0.000000
0.000000
0.000000
0.000000
0.000000
0.000000
0.000000
0.000000
0.000000
0.000000
0.000000
0.000000
0.000000
0.000000
0.000000
0.000000
0.000000
0.000000
0.000000
0.000000
0.000000
1.000000
1.000000
0.000000
0.000000
0.000000
1.000000
1.000000
1.000000
1.000000
1.000000
1.000000
1.000000
0.000000
0.000000
0.000000
0.000000
0.000000
0.000000
0.000000
0.000000
0.000000
0.000000
0.000000
0.000000
0.000000
0.000000
0.000000
0.000000
0.000000
0.000000
0.000000
0.000000
0.000000
0.000000
1.000000
1.000000
1.000000
1.000000
1.000000
1.000000
1.000000
0.000000
0.000000
0.000000
0.000000
0.000000
0.000000
0.000000
0.000000
0.000000
0.000000
0.000000
0.000000
0.000000
1.000000
1.000000
1.000000
1.000000
1.000000
0.000000
0.000000
0.000000
0.000000
0.000000
0.000000
0.000000
0.000000
0.000000
0.000000
0.000000
0.000000
0.000000
0.000000
0.000000
0.000000
0.000000
0.000000
0.000000
0.000000
0.000000
0.000000
0.000000
0.000000
0.000000
0.000000
0.000000
0.000000
0.000000
0.000000
0.000000
0.000000
0.000000
0.000000
0.000000
0.000000
0.000000
0.000000
0.000000
0.000000
0.000000
0.000000
0.000000
0.000000
0.000000
0.000000
0.000000
0.000000
0.000000
0.000000
0.000000
0.000000
0.000000
0.000000
0.000000
0.000000
0.000000
0.000000
1.000000
1.000000
1.000000
1.000000
1.000000
1.000000
1.000000
1.000000
0.000000
1.000000
1.000000
1.000000
0.000000
0.000000
0.000000
0.000000
0.000000
0.000000
0.000000
1.000000
1.000000
1.000000
1.000000
1.000000
1.000000
0.000000
0.000000
0.000000
0.000000
0.000000
1.000000
1.000000
1.000000
1.000000
1.000000
0.000000
0.000000
0.000000
0.000000
0.000000
0.000000
0.000000
0.000000
0.000000
0.000000
0.000000
0.000000
0.000000
0.000000
0.000000
0.000000
0.000000
0.000000
0.000000
0.000000
0.000000
0.000000
0.000000
0.000000
0.000000
0.000000
0.000000
0.000000
0.000000
0.000000
0.000000
0.000000
0.000000
0.000000
0.000000
0.000000
0.000000
0.000000
0.000000
0.000000
0.000000
0.000000
0.000000
0.000000
0.000000
0.000000
0.000000
0.000000
0.000000
0.000000
0.000000
0.000000
0.000000
0.000000
0.000000
0.000000
0.000000
0.000000
0.000000
0.000000
0.000000
0.000000
1.000000
1.000000
1.000000
0.000000
1.000000
1.000000
1.000000
1.000000
1.000000
0.000000
0.000000
0.000000
0.000000
0.000000
0.000000
0.000000
0.000000
0.000000
0.000000
0.000000
1.000000
1.000000
0.000000
0.000000
0.000000
1.000000
1.000000
0.000000
0.000000
0.000000
0.000000
0.000000
0.000000
0.000000
0.000000
0.000000
0.000000
1.000000
1.000000
1.000000
1.000000
0.000000
0.000000
0.000000
0.000000
0.000000
0.000000
0.000000
0.000000
0.000000
0.000000
0.000000
0.000000
0.000000
0.000000
0.000000
0.000000
0.000000
0.000000
0.000000
0.000000
0.000000
0.000000
0.000000
0.000000
0.000000
0.000000
0.000000
0.000000
0.000000
0.000000
0.000000
0.000000
0.000000
0.000000
0.000000
0.000000
0.000000
0.000000
0.000000
0.000000
0.000000
0.000000
0.000000
0.000000
0.000000
0.000000
0.000000
0.000000
0.000000
0.000000
0.000000
0.000000
0.000000
0.000000
0.000000
0.000000
0.000000
0.000000
0.000000
0.000000
0.000000
0.000000
0.000000
0.000000
0.000000
1.000000
1.000000
0.000000
0.000000
0.000000
0.000000
0.000000
0.000000
0.000000
0.000000
0.000000
0.000000
0.000000
1.000000
1.000000
1.000000
1.000000
1.000000
1.000000
0.000000
0.000000
0.000000
0.000000
0.000000
0.000000
0.000000
0.000000
0.000000
0.000000
0.000000
0.000000
0.000000
0.000000
0.000000
1.000000
1.000000
1.000000
1.000000
1.000000
1.000000
1.000000
1.000000
1.000000
1.000000
1.000000
1.000000
1.000000
1.000000
1.000000
1.000000
1.000000
1.000000
1.000000
1.000000
1.000000
1.000000
0.000000
0.000000
0.000000
1.000000
1.000000
1.000000
1.000000
1.000000
1.000000
0.000000
0.000000
0.000000
1.000000
1.000000
1.000000
1.000000
1.000000
1.000000
0.000000
1.000000
1.000000
1.000000
1.000000
0.000000
0.000000
0.000000
0.000000
0.000000
0.000000
0.000000
0.000000
0.000000
0.000000
1.000000
1.000000
0.000000
1.000000
1.000000
1.000000
1.000000
1.000000
1.000000
0.000000
1.000000
1.000000
1.000000
0.000000
0.000000
0.000000
0.000000
0.000000
0.000000
1.000000
1.000000
1.000000
1.000000
1.000000
1.000000
0.000000
1.000000
1.000000
1.000000
1.000000
1.000000
1.000000
0.000000
0.000000
0.000000
1.000000
1.000000
1.000000
1.000000
1.000000
1.000000
0.000000
0.000000
0.000000
1.000000
1.000000
1.000000
1.000000
1.000000
1.000000
1.000000
1.000000
1.000000
1.000000
1.000000
1.000000
1.000000
1.000000
1.000000
1.000000
1.000000
1.000000
1.000000
1.000000
1.000000
1.000000
0.000000
0.000000
0.000000
0.000000
0.000000
0.000000
0.000000
0.000000
0.000000
0.000000
0.000000
0.000000
0.000000
0.000000
0.000000
1.000000
1.000000
1.000000
1.000000
1.000000
1.000000
1.000000
1.000000
1.000000
1.000000
0.000000
0.000000
0.000000
0.000000
0.000000
0.000000
0.000000
0.000000
0.000000
0.000000
0.000000
0.000000
0.000000
0.000000
0.000000
0.000000
0.000000
0.000000
0.000000
0.000000
0.000000
0.000000
0.000000
0.000000
0.000000
0.000000
0.000000
0.000000
0.000000
0.000000
0.000000
0.000000
0.000000
0.000000
0.000000
0.000000
0.000000
0.000000
0.000000
0.000000
0.000000
0.000000
0.000000
0.000000
0.000000
0.000000
0.000000
0.000000
0.000000
0.000000
0.000000
0.000000
0.000000
0.000000
0.000000
0.000000
0.000000
0.000000
0.000000
0.000000
0.000000
0.000000
0.000000
0.000000
0.000000
0.000000
0.000000
0.000000
0.000000
0.000000
0.000000
0.000000
0.000000
0.000000
1.000000
1.000000
0.000000
0.000000
0.000000
0.000000
0.000000
0.000000
0.000000
1.000000
1.000000
1.000000
1.000000
0.000000
0.000000
0.000000
0.000000
1.000000
1.000000
1.000000
1.000000
1.000000
1.000000
1.000000
0.000000
0.000000
0.000000
0.000000
0.000000
0.000000
0.000000
0.000000
0.000000
1.000000
1.000000
1.000000
1.000000
0.000000
1.000000
1.000000
1.000000
1.000000
0.000000
0.000000
0.000000
0.000000
1.000000
1.000000
0.000000
1.000000
1.000000
0.000000
0.000000
0.000000
0.000000
0.000000
0.000000
0.000000
0.000000
0.000000
0.000000
0.000000
0.000000
0.000000
0.000000
0.000000
0.000000
0.000000
0.000000
1.000000
1.000000
0.000000
0.000000
0.000000
1.000000
1.000000
1.000000
1.000000
1.000000
1.000000
1.000000
1.000000
1.000000
1.000000
1.000000
1.000000
1.000000
1.000000
1.000000
1.000000
1.000000
1.000000
1.000000
1.000000
1.000000
1.000000
1.000000
1.000000
0.000000
0.000000
0.000000
0.000000
0.000000
0.000000
0.000000
0.000000
1.000000
1.000000
0.000000
0.000000
0.000000
0.000000
0.000000
0.000000
0.000000
0.000000
0.000000
0.000000
0.000000
0.000000
0.000000
0.000000
0.000000
0.000000
0.000000
0.000000
0.000000
0.000000
0.000000
0.000000
0.000000
0.000000
0.000000
0.000000
0.000000
0.000000
0.000000
0.000000
0.000000
0.000000
0.000000
0.000000
0.000000
0.000000
0.000000
0.000000
0.000000
0.000000
0.000000
0.000000
0.000000
0.000000
0.000000
0.000000
0.000000
0.000000
0.000000
0.000000
0.000000
0.000000
0.000000
0.000000
0.000000
1.000000
1.000000
1.000000
1.000000
1.000000
1.000000
1.000000
1.000000
1.000000
1.000000
1.000000
1.000000
1.000000
1.000000
1.000000
1.000000
1.000000
1.000000
1.000000
0.000000
0.000000
0.000000
0.000000
0.000000
0.000000
1.000000
1.000000
1.000000
1.000000
1.000000
1.000000
1.000000
1.000000
1.000000
1.000000
1.000000
1.000000
1.000000
1.000000
1.000000
1.000000
1.000000
1.000000
1.000000
1.000000
1.000000
1.000000
0.000000
0.000000
0.000000
0.000000
0.000000
1.000000
1.000000
1.000000
0.000000
0.000000
0.000000
1.000000
1.000000
1.000000
1.000000
1.000000
0.000000
0.000000
0.000000
0.000000
0.000000
0.000000
0.000000
0.000000
0.000000
0.000000
0.000000
0.000000
0.000000
0.000000
0.000000
0.000000
0.000000
0.000000
0.000000
0.000000
0.000000
0.000000
0.000000
1.000000
0.000000
1.000000
1.000000
0.000000
0.000000
0.000000
0.000000
0.000000
0.000000
0.000000
0.000000
0.000000
0.000000
0.000000
0.000000
0.000000
0.000000
0.000000
0.000000
0.000000
0.000000
0.000000
0.000000
0.000000
0.000000
1.000000
1.000000
1.000000
1.000000
1.000000
1.000000
1.000000
1.000000
1.000000
1.000000
1.000000
1.000000
1.000000
1.000000
1.000000
1.000000
1.000000
1.000000
1.000000
1.000000
1.000000
1.000000
1.000000
1.000000
1.000000
1.000000
0.000000
0.000000
0.000000
0.000000
0.000000
0.000000
0.000000
0.000000
0.000000
0.000000
0.000000
0.000000
0.000000
0.000000
1.000000
0.000000
0.000000
0.000000
0.000000
0.000000
0.000000
1.000000
1.000000
0.000000
1.000000
1.000000
1.000000
1.000000
0.000000
0.000000
0.000000
0.000000
0.000000
0.000000
1.000000
1.000000
0.000000
0.000000
0.000000
0.000000
0.000000
0.000000
0.000000
0.000000
0.000000
0.000000
0.000000
0.000000
0.000000
0.000000
0.000000
0.000000
0.000000
0.000000
0.000000
0.000000
0.000000
0.000000
0.000000
0.000000
0.000000
0.000000
0.000000
0.000000
0.000000
0.000000
0.000000
0.000000
0.000000
0.000000
0.000000
0.000000
0.000000
0.000000
0.000000
0.000000
0.000000
0.000000
0.000000
0.000000
0.000000
0.000000
0.000000
0.000000
0.000000
0.000000
0.000000
0.000000
0.000000
1.000000
1.000000
1.000000
1.000000
1.000000
1.000000
1.000000
1.000000
1.000000
1.000000
1.000000
1.000000
1.000000
1.000000
1.000000
1.000000
1.000000
1.000000
1.000000
0.000000
0.000000
0.000000
0.000000
0.000000
0.000000
0.000000
0.000000
0.000000
0.000000
0.000000
1.000000
1.000000
1.000000
1.000000
0.000000
0.000000
0.000000
0.000000
0.000000
0.000000
1.000000
1.000000
0.000000
0.000000
0.000000
0.000000
0.000000
0.000000
0.000000
0.000000
0.000000
0.000000
0.000000
0.000000
0.000000
0.000000
0.000000
0.000000
0.000000
0.000000
0.000000
0.000000
0.000000
0.000000
0.000000
0.000000
0.000000
0.000000
0.000000
0.000000
0.000000
0.000000
0.000000
0.000000
0.000000
0.000000
0.000000
0.000000
0.000000
0.000000
0.000000
0.000000
0.000000
1.000000
1.000000
1.000000
1.000000
1.000000
1.000000
1.000000
1.000000
1.000000
1.000000
1.000000
1.000000
1.000000
1.000000
1.000000
1.000000
1.000000
1.000000
1.000000
1.000000
1.000000
1.000000
1.000000
1.000000
0.000000
0.000000
0.000000
0.000000
1.000000
1.000000
1.000000
0.000000
0.000000
0.000000
0.000000
0.000000
0.000000
0.000000
0.000000
0.000000
0.000000
0.000000
0.000000
0.000000
0.000000
0.000000
0.000000
0.000000
0.000000
0.000000
0.000000
0.000000
0.000000
0.000000
0.000000
0.000000
0.000000
0.000000
0.000000
0.000000
0.000000
0.000000
0.000000
0.000000
0.000000
0.000000
0.000000
0.000000
0.000000
0.000000
0.000000
0.000000
0.000000
0.000000
0.000000
0.000000
0.000000
0.000000
0.000000
0.000000
0.000000
0.000000
0.000000
0.000000
0.000000
1.000000
0.000000
0.000000
0.000000
0.000000
0.000000
0.000000
0.000000
0.000000
0.000000
0.000000
0.000000
1.000000
0.000000
0.000000
0.000000
0.000000
0.000000
0.000000
0.000000
1.000000
1.000000
0.000000
0.000000
0.000000
0.000000
1.000000
1.000000
1.000000
1.000000
1.000000
1.000000
1.000000
1.000000
1.000000
1.000000
1.000000
0.000000
1.000000
1.000000
1.000000
1.000000
1.000000
1.000000
1.000000
1.000000
1.000000
1.000000
1.000000
1.000000
1.000000
0.000000
0.000000
0.000000
0.000000
0.000000
0.000000
0.000000
0.000000
0.000000
1.000000
1.000000
1.000000
1.000000
1.000000
0.000000
0.000000
0.000000
0.000000
1.000000
0.000000
0.000000
0.000000
1.000000
1.000000
1.000000
0.000000
0.000000
0.000000
0.000000
0.000000
0.000000
0.000000
0.000000
0.000000
0.000000
0.000000
0.000000
0.000000
0.000000
0.000000
0.000000
0.000000
0.000000
0.000000
0.000000
0.000000
0.000000
0.000000
0.000000
1.000000
0.000000
0.000000
1.000000
1.000000
1.000000
1.000000
1.000000
1.000000
1.000000
1.000000
1.000000
1.000000
1.000000
1.000000
1.000000
1.000000
1.000000
0.000000
0.000000
0.000000
0.000000
0.000000
0.000000
0.000000
1.000000
1.000000
0.000000
0.000000
0.000000
1.000000
1.000000
0.000000
0.000000
0.000000
0.000000
0.000000
0.000000
0.000000
0.000000
0.000000
0.000000
0.000000
0.000000
0.000000
0.000000
0.000000
0.000000
0.000000
0.000000
0.000000
0.000000
0.000000
0.000000
0.000000
0.000000
0.000000
0.000000
0.000000
0.000000
0.000000
0.000000
0.000000
0.000000
0.000000
0.000000
0.000000
1.000000
1.000000
1.000000
1.000000
0.000000
0.000000
0.000000
0.000000
0.000000
0.000000
0.000000
0.000000
0.000000
0.000000
0.000000
0.000000
0.000000
0.000000
0.000000
0.000000
0.000000
0.000000
0.000000
0.000000
0.000000
0.000000
0.000000
0.000000
0.000000
0.000000
1.000000
1.000000
1.000000
1.000000
1.000000
1.000000
1.000000
1.000000
1.000000
1.000000
1.000000
1.000000
1.000000
1.000000
1.000000
1.000000
1.000000
1.000000
1.000000
1.000000
0.000000
0.000000
0.000000
1.000000
1.000000
1.000000
0.000000
0.000000
0.000000
1.000000
1.000000
0.000000
0.000000
0.000000
0.000000
0.000000
0.000000
0.000000
0.000000
0.000000
0.000000
1.000000
1.000000
1.000000
1.000000
1.000000
1.000000
0.000000
1.000000
1.000000
1.000000
1.000000
1.000000
1.000000
1.000000
1.000000
1.000000
1.000000
0.000000
0.000000
0.000000
1.000000
1.000000
1.000000
1.000000
0.000000
1.000000
1.000000
1.000000
1.000000
1.000000
0.000000
1.000000
1.000000
0.000000
0.000000
0.000000
0.000000
0.000000
0.000000
0.000000
0.000000
0.000000
0.000000
0.000000
0.000000
0.000000
0.000000
0.000000
0.000000
0.000000
0.000000
0.000000
0.000000
0.000000
0.000000
0.000000
1.000000
1.000000
0.000000
0.000000
0.000000
0.000000
0.000000
1.000000
1.000000
1.000000
0.000000
0.000000
1.000000
1.000000
1.000000
1.000000
1.000000
1.000000
0.000000
1.000000
0.000000
0.000000
0.000000
0.000000
0.000000
0.000000
0.000000
0.000000
0.000000
0.000000
0.000000
0.000000
0.000000
0.000000
0.000000
0.000000
0.000000
0.000000
0.000000
0.000000
0.000000
0.000000
0.000000
0.000000
0.000000
0.000000
1.000000
1.000000
1.000000
1.000000
1.000000
1.000000
1.000000
1.000000
1.000000
1.000000
1.000000
1.000000
1.000000
0.000000
0.000000
0.000000
1.000000
1.000000
1.000000
1.000000
1.000000
1.000000
0.000000
0.000000
0.000000
0.000000
0.000000
0.000000
0.000000
1.000000
1.000000
1.000000
1.000000
1.000000
1.000000
1.000000
1.000000
0.000000
0.000000
1.000000
1.000000
0.000000
0.000000
0.000000
0.000000
0.000000
0.000000
0.000000
0.000000
0.000000
0.000000
0.000000
0.000000
0.000000
0.000000
0.000000
0.000000
0.000000
0.000000
0.000000
1.000000
1.000000
0.000000
0.000000
0.000000
1.000000
1.000000
1.000000
1.000000
1.000000
0.000000
0.000000
0.000000
0.000000
0.000000
0.000000
0.000000
0.000000
0.000000
0.000000
0.000000
0.000000
0.000000
0.000000
0.000000
0.000000
0.000000
0.000000
0.000000
0.000000
0.000000
0.000000
0.000000
0.000000
0.000000
0.000000
0.000000
0.000000
0.000000
0.000000
0.000000
0.000000
0.000000
0.000000
0.000000
0.000000
0.000000
0.000000
0.000000
0.000000
0.000000
0.000000
0.000000
0.000000
0.000000
0.000000
0.000000
0.000000
0.000000
0.000000
0.000000
0.000000
0.000000
0.000000
1.000000
0.000000
0.000000
0.000000
0.000000
0.000000
0.000000
0.000000
0.000000
0.000000
0.000000
0.000000
0.000000
0.000000
0.000000
0.000000
0.000000
0.000000
0.000000
0.000000
0.000000
0.000000
0.000000
0.000000
0.000000
0.000000
1.000000
1.000000
1.000000
1.000000
0.000000
0.000000
0.000000
1.000000
1.000000
1.000000
0.000000
1.000000
0.000000
0.000000
1.000000
1.000000
1.000000
1.000000
1.000000
1.000000
1.000000
1.000000
1.000000
1.000000
1.000000
1.000000
1.000000
1.000000
0.000000
0.000000
0.000000
0.000000
0.000000
0.000000
0.000000
0.000000
1.000000
1.000000
0.000000
0.000000
0.000000
0.000000
0.000000
0.000000
0.000000
0.000000
1.000000
0.000000
0.000000
0.000000
0.000000
0.000000
0.000000
0.000000
0.000000
0.000000
0.000000
0.000000
0.000000
0.000000
0.000000
0.000000
0.000000
0.000000
0.000000
0.000000
0.000000
0.000000
0.000000
0.000000
0.000000
0.000000
0.000000
0.000000
0.000000
0.000000
0.000000
0.000000
0.000000
0.000000
0.000000
0.000000
0.000000
0.000000
0.000000
0.000000
0.000000
0.000000
0.000000
0.000000
0.000000
0.000000
0.000000
0.000000
0.000000
0.000000
0.000000
0.000000
0.000000
0.000000
0.000000
0.000000
0.000000
0.000000
0.000000
0.000000
0.000000
0.000000
0.000000
0.000000
0.000000
0.000000
0.000000
0.000000
0.000000
0.000000
0.000000
0.000000
0.000000
0.000000
0.000000
0.000000
0.000000
0.000000
0.000000
0.000000
0.000000
0.000000
0.000000
0.000000
0.000000
0.000000
0.000000
0.000000
0.000000
0.000000
0.000000
0.000000
0.000000
0.000000
0.000000
0.000000
0.000000
0.000000
0.000000
0.000000
0.000000
0.000000
0.000000
0.000000
0.000000
0.000000
0.000000
0.000000
0.000000
0.000000
0.000000
0.000000
0.000000
0.000000
0.000000
1.000000
1.000000
1.000000
1.000000
1.000000
1.000000
1.000000
1.000000
1.000000
1.000000
0.000000
0.000000
0.000000
0.000000
0.000000
0.000000
0.000000
0.000000
0.000000
0.000000
0.000000
1.000000
1.000000
0.000000
0.000000
0.000000
0.000000
0.000000
0.000000
0.000000
0.000000
0.000000
1.000000
0.000000
0.000000
1.000000
1.000000
0.000000
0.000000
0.000000
0.000000
0.000000
0.000000
0.000000
0.000000
0.000000
0.000000
0.000000
0.000000
0.000000
0.000000
0.000000
0.000000
0.000000
0.000000
0.000000
0.000000
0.000000
0.000000
0.000000
0.000000
0.000000
0.000000
0.000000
0.000000
0.000000
0.000000
0.000000
0.000000
0.000000
0.000000
0.000000
0.000000
0.000000
0.000000
1.000000
1.000000
1.000000
1.000000
1.000000
1.000000
1.000000
1.000000
1.000000
0.000000
0.000000
0.000000
0.000000
0.000000
0.000000
0.000000
0.000000
0.000000
0.000000
0.000000
0.000000
0.000000
0.000000
0.000000
0.000000
0.000000
0.000000
0.000000
0.000000
0.000000
0.000000
0.000000
0.000000
0.000000
0.000000
0.000000
0.000000
0.000000
0.000000
0.000000
0.000000
0.000000
0.000000
0.000000
0.000000
0.000000
0.000000
0.000000
0.000000
0.000000
0.000000
0.000000
0.000000
0.000000
0.000000
0.000000
0.000000
0.000000
0.000000
0.000000
0.000000
0.000000
0.000000
0.000000
0.000000
0.000000
0.000000
0.000000
0.000000
0.000000
0.000000
0.000000
0.000000
0.000000
0.000000
0.000000
0.000000
0.000000
0.000000
0.000000
0.000000
0.000000
0.000000
0.000000
0.000000
0.000000
0.000000
0.000000
0.000000
1.000000
1.000000
1.000000
0.000000
0.000000
0.000000
0.000000
0.000000
0.000000
0.000000
0.000000
0.000000
0.000000
0.000000
0.000000
0.000000
0.000000
0.000000
0.000000
0.000000
0.000000
0.000000
0.000000
0.000000
0.000000
0.000000
0.000000
0.000000
0.000000
0.000000
0.000000
0.000000
0.000000
0.000000
0.000000
0.000000
0.000000
0.000000
0.000000
0.000000
0.000000
0.000000
0.000000
0.000000
0.000000
0.000000
0.000000
0.000000
0.000000
0.000000
0.000000
0.000000
0.000000
0.000000
0.000000
0.000000
0.000000
0.000000
0.000000
0.000000
0.000000
0.000000
0.000000
0.000000
0.000000
0.000000
0.000000
0.000000
0.000000
0.000000
0.000000
0.000000
0.000000
0.000000
0.000000
0.000000
0.000000
0.000000
0.000000
0.000000
0.000000
0.000000
0.000000
0.000000
0.000000
0.000000
0.000000
0.000000
0.000000
0.000000
0.000000
0.000000
0.000000
0.000000
0.000000
0.000000
0.000000
0.000000
0.000000
0.000000
0.000000
0.000000
0.000000
0.000000
0.000000
0.000000
0.000000
0.000000
0.000000
0.000000
0.000000
0.000000
0.000000
0.000000
0.000000
0.000000
0.000000
0.000000
0.000000
0.000000
0.000000
0.000000
0.000000
0.000000
0.000000
0.000000
0.000000
0.000000
0.000000
0.000000
0.000000
0.000000
0.000000
0.000000
0.000000
0.000000
0.000000
0.000000
0.000000
0.000000
0.000000
0.000000
0.000000
0.000000
0.000000
0.000000
0.000000
0.000000
0.000000
0.000000
0.000000
0.000000
0.000000
0.000000
0.000000
0.000000
0.000000
0.000000
1.000000
0.000000
0.000000
0.000000
0.000000
0.000000
1.000000
1.000000
0.000000
0.000000
0.000000
0.000000
0.000000
0.000000
0.000000
0.000000
0.000000
0.000000
0.000000
0.000000
0.000000
0.000000
0.000000
0.000000
0.000000
0.000000
0.000000
0.000000
0.000000
0.000000
0.000000
0.000000
0.000000
0.000000
0.000000
0.000000
0.000000
0.000000
0.000000
0.000000
0.000000
0.000000
0.000000
0.000000
0.000000
0.000000
0.000000
0.000000
0.000000
0.000000
0.000000
0.000000
0.000000
0.000000
0.000000
0.000000
0.000000
0.000000
0.000000
0.000000
0.000000
0.000000
0.000000
0.000000
0.000000
0.000000
0.000000
0.000000
0.000000
0.000000
0.000000
0.000000
0.000000
0.000000
0.000000
0.000000
0.000000
0.000000
0.000000
0.000000
0.000000
0.000000
0.000000
0.000000
0.000000
0.000000
0.000000
0.000000
0.000000
0.000000
0.000000
0.000000
0.000000
0.000000
0.000000
0.000000
0.000000
0.000000
0.000000
0.000000
0.000000
0.000000
0.000000
0.000000
0.000000
0.000000
0.000000
0.000000
0.000000
0.000000
0.000000
0.000000
0.000000
0.000000
0.000000
0.000000
0.000000
0.000000
0.000000
0.000000
0.000000
0.000000
0.000000
0.000000
0.000000
0.000000
0.000000
0.000000
0.000000
0.000000
0.000000
0.000000
0.000000
0.000000
0.000000
0.000000
0.000000
0.000000
0.000000
0.000000
0.000000
0.000000
0.000000
0.000000
0.000000
0.000000
0.000000
0.000000
0.000000
0.000000
0.000000
0.000000
0.000000
0.000000
0.000000
0.000000
0.000000
0.000000
0.000000
0.000000
0.000000
0.000000
0.000000
0.000000
0.000000
0.000000
0.000000
0.000000
0.000000
0.000000
0.000000
0.000000
0.000000
0.000000
0.000000
0.000000
0.000000
0.000000
0.000000
0.000000
0.000000
0.000000
0.000000
0.000000
0.000000
0.000000
0.000000
0.000000
0.000000
0.000000
0.000000
0.000000
0.000000
0.000000
0.000000
0.000000
0.000000
0.000000
0.000000
0.000000
0.000000
0.000000
0.000000
0.000000
0.000000
0.000000
0.000000
0.000000
0.000000
0.000000
0.000000
0.000000
0.000000
0.000000
0.000000
0.000000
0.000000
0.000000
0.000000
0.000000
0.000000
0.000000
0.000000
0.000000
0.000000
0.000000
0.000000
0.000000
0.000000
0.000000
0.000000
0.000000
0.000000
0.000000
0.000000
0.000000
0.000000
0.000000
0.000000
0.000000
0.000000
0.000000
0.000000
0.000000
0.000000
0.000000
0.000000
0.000000
0.000000
0.000000
0.000000
0.000000
0.000000
0.000000
0.000000
0.000000
0.000000
0.000000
0.000000
0.000000
0.000000
0.000000
0.000000
0.000000
0.000000
0.000000
0.000000
0.000000
0.000000
0.000000
0.000000
0.000000
0.000000
0.000000
0.000000
0.000000
0.000000
0.000000
0.000000
0.000000
0.000000
0.000000
0.000000
0.000000
0.000000
0.000000
0.000000
0.000000
0.000000
0.000000
0.000000
0.000000
0.000000
0.000000
0.000000
0.000000
0.000000
0.000000
0.000000
0.000000
0.000000
0.000000
0.000000
0.000000
0.000000
0.000000
0.000000
0.000000
0.000000
0.000000
0.000000
0.000000
0.000000
0.000000
0.000000
0.000000
0.000000
0.000000
0.000000
0.000000
0.000000
0.000000
0.000000
0.000000
0.000000
0.000000
0.000000
0.000000
0.000000
0.000000
0.000000
0.000000
0.000000
0.000000
0.000000
0.000000
0.000000
0.000000
0.000000
0.000000
0.000000
0.000000
0.000000
0.000000
0.000000
0.000000
0.000000
0.000000
0.000000
0.000000
0.000000
0.000000
0.000000
0.000000
0.000000
0.000000
0.000000
0.000000
0.000000
0.000000
0.000000
0.000000
0.000000
0.000000
0.000000
0.000000
0.000000
0.000000
0.000000
0.000000
0.000000
0.000000
0.000000
0.000000
0.000000
0.000000
0.000000
0.000000
0.000000
0.000000
0.000000
0.000000
0.000000
0.000000
0.000000
0.000000
0.000000
0.000000
0.000000
0.000000
0.000000
0.000000
0.000000
0.000000
0.000000
0.000000
0.000000
0.000000
0.000000
0.000000
0.000000
0.000000
0.000000
0.000000
0.000000
0.000000
0.000000
0.000000
0.000000
0.000000
0.000000
0.000000
0.000000
0.000000
0.000000
0.000000
0.000000
0.000000
0.000000
0.000000
0.000000
0.000000
0.000000
0.000000
0.000000
0.000000
0.000000
0.000000
0.000000
0.000000
0.000000
0.000000
0.000000
0.000000
0.000000
0.000000
0.000000
0.000000
0.000000
0.000000
0.000000
0.000000
0.000000
0.000000
0.000000
0.000000
0.000000
0.000000
0.000000
0.000000
0.000000
0.000000
0.000000
0.000000
0.000000
0.000000
0.000000
0.000000
0.000000
0.000000
0.000000
0.000000
0.000000
0.000000
0.000000
0.000000
0.000000
0.000000
0.000000
0.000000
0.000000
0.000000
0.000000
0.000000
0.000000
0.000000
0.000000
0.000000
0.000000
0.000000
0.000000
0.000000
0.000000
0.000000
0.000000
0.000000
0.000000
0.000000
0.000000
0.000000
0.000000
0.000000
0.000000
0.000000
0.000000
0.000000
0.000000
0.000000
0.000000
0.000000
0.000000
0.000000
0.000000
0.000000
0.000000
0.000000
0.000000
0.000000
0.000000
0.000000
0.000000
0.000000
0.000000
0.000000
0.000000
0.000000
0.000000
0.000000
0.000000
0.000000
0.000000
0.000000
0.000000
0.000000
0.000000
0.000000
0.000000
0.000000
0.000000
0.000000
0.000000
0.000000
0.000000
0.000000
0.000000
0.000000
0.000000
0.000000
0.000000
0.000000
0.000000
0.000000
0.000000
0.000000
0.000000
0.000000
0.000000
0.000000
0.000000
0.000000
0.000000
0.000000
0.000000
0.000000
0.000000
0.000000
0.000000
0.000000
0.000000
0.000000
0.000000
0.000000
0.000000
0.000000
0.000000
0.000000
0.000000
0.000000
0.000000
0.000000
0.000000
0.000000
0.000000
0.000000
0.000000
0.000000
0.000000
0.000000
0.000000
0.000000
0.000000
0.000000
0.000000
0.000000
0.000000
0.000000
0.000000
0.000000
0.000000
0.000000
0.000000
0.000000
0.000000
0.000000
0.000000
0.000000
0.000000
0.000000
0.000000
0.000000
0.000000
0.000000
0.000000
0.000000
0.000000
0.000000
0.000000
0.000000
0.000000
0.000000
0.000000
0.000000
0.000000
0.000000
0.000000
0.000000
0.000000
0.000000
0.000000
0.000000
0.000000
0.000000
0.000000
0.000000
0.000000
0.000000
0.000000
0.000000
0.000000
0.000000
0.000000
0.000000
0.000000
0.000000
0.000000
0.000000
0.000000
0.000000
0.000000
0.000000
0.000000
0.000000
0.000000
0.000000
0.000000
0.000000
0.000000
0.000000
0.000000
0.000000
0.000000
0.000000
0.000000
0.000000
0.000000
0.000000
0.000000
0.000000
0.000000
0.000000
0.000000
0.000000
0.000000
0.000000
0.000000
0.000000
0.000000
0.000000
0.000000
0.000000
0.000000
0.000000
0.000000
0.000000
0.000000
0.000000
0.000000
0.000000
0.000000
0.000000
0.000000
0.000000
0.000000
0.000000
0.000000
0.000000
0.000000
0.000000
0.000000
0.000000
0.000000
0.000000
0.000000
0.000000
0.000000
0.000000
0.000000
0.000000
0.000000
0.000000
0.000000
0.000000
0.000000
0.000000
0.000000
0.000000
0.000000
0.000000
0.000000
0.000000
0.000000
0.000000
0.000000
0.000000
0.000000
0.000000
0.000000
0.000000
0.000000
0.000000
0.000000
0.000000
0.000000
0.000000
0.000000
0.000000
0.000000
0.000000
0.000000
0.000000
0.000000
0.000000
0.000000
0.000000
0.000000
0.000000
0.000000
0.000000
0.000000
0.000000
0.000000
0.000000
0.000000
0.000000
0.000000
0.000000
0.000000
0.000000
0.000000
0.000000
0.000000
0.000000
0.000000
0.000000
0.000000
0.000000
0.000000
0.000000
0.000000
0.000000
0.000000
0.000000
0.000000
0.000000
0.000000
0.000000
0.000000
0.000000
0.000000
0.000000
0.000000
0.000000
0.000000
0.000000
0.000000
0.000000
0.000000
0.000000
0.000000
0.000000
0.000000
0.000000
0.000000
0.000000
0.000000
0.000000
0.000000
0.000000
0.000000
0.000000
0.000000
0.000000
0.000000
0.000000
0.000000
0.000000
0.000000
0.000000
0.000000
0.000000
0.000000
0.000000
0.000000
0.000000
0.000000
0.000000
0.000000
0.000000
0.000000
0.000000
0.000000
0.000000
0.000000
0.000000
0.000000
0.000000
0.000000
0.000000
0.000000
0.000000
0.000000
0.000000
0.000000
0.000000
0.000000
0.000000
0.000000
0.000000
0.000000
0.000000
0.000000
0.000000
0.000000
0.000000
0.000000
0.000000
0.000000
0.000000
0.000000
0.000000
0.000000
0.000000
0.000000
0.000000
0.000000
0.000000
0.000000
0.000000
0.000000
0.000000
0.000000
0.000000
0.000000
0.000000
0.000000
0.000000
0.000000
0.000000
0.000000
0.000000
0.000000
0.000000
0.000000
0.000000
0.000000
0.000000
0.000000
0.000000
0.000000
0.000000
0.000000
0.000000
0.000000
0.000000
0.000000
0.000000
0.000000
0.000000
0.000000
0.000000
0.000000
0.000000
0.000000
0.000000
0.000000
0.000000
0.000000
0.000000
0.000000
0.000000
0.000000
0.000000
0.000000
0.000000
0.000000
0.000000
0.000000
0.000000
0.000000
0.000000
0.000000
0.000000
0.000000
0.000000
0.000000
0.000000
0.000000
0.000000
0.000000
0.000000
0.000000
0.000000
0.000000
0.000000
0.000000
0.000000
0.000000
0.000000
0.000000
0.000000
0.000000
0.000000
0.000000
0.000000
0.000000
0.000000
0.000000
0.000000
0.000000
0.000000
0.000000
0.000000
0.000000
0.000000
0.000000
0.000000
0.000000
0.000000
0.000000
0.000000
0.000000
0.000000
0.000000
0.000000
0.000000
0.000000
0.000000
0.000000
0.000000
0.000000
0.000000
0.000000
0.000000
0.000000
0.000000
0.000000
0.000000
0.000000
0.000000
0.000000
0.000000
0.000000
0.000000
0.000000
0.000000
0.000000
0.000000
0.000000
0.000000
0.000000
0.000000
0.000000
0.000000
0.000000
0.000000
0.000000
0.000000
0.000000
0.000000
0.000000
0.000000
0.000000
0.000000
0.000000
0.000000
0.000000
0.000000
0.000000
0.000000
0.000000
0.000000
0.000000
0.000000
0.000000
0.000000
0.000000
0.000000
0.000000
0.000000
0.000000
0.000000
0.000000
0.000000
0.000000
0.000000
0.000000
0.000000
0.000000
0.000000
0.000000
0.000000
0.000000
0.000000
0.000000
0.000000
0.000000
0.000000
0.000000
0.000000
0.000000
0.000000
0.000000
0.000000
0.000000
0.000000
0.000000
0.000000
0.000000
0.000000
0.000000
0.000000
0.000000
0.000000
0.000000
0.000000
0.000000
0.000000
0.000000
0.000000
0.000000
0.000000
0.000000
0.000000
0.000000
0.000000
0.000000
0.000000
0.000000
0.000000
0.000000
0.000000
0.000000
0.000000
0.000000
0.000000
0.000000
0.000000
0.000000
0.000000
0.000000
0.000000
0.000000
0.000000
0.000000
0.000000
0.000000
0.000000
0.000000
0.000000
0.000000
0.000000
0.000000
0.000000
0.000000
0.000000
0.000000
0.000000
0.000000
0.000000
0.000000
0.000000
0.000000
0.000000
0.000000
0.000000
0.000000
0.000000
0.000000
0.000000
0.000000
0.000000
0.000000
0.000000
0.000000
0.000000
0.000000
0.000000
0.000000
0.000000
0.000000
0.000000
0.000000
0.000000
0.000000
0.000000
0.000000
0.000000
0.000000
0.000000
0.000000
0.000000
0.000000
0.000000
0.000000
0.000000
0.000000
0.000000
0.000000
0.000000
0.000000
0.000000
0.000000
0.000000
0.000000
0.000000
0.000000
0.000000
0.000000
0.000000
0.000000
0.000000
0.000000
0.000000
0.000000
0.000000
0.000000
0.000000
0.000000
0.000000
0.000000
0.000000
0.000000
0.000000
0.000000
0.000000
0.000000
0.000000
0.000000
0.000000
0.000000
0.000000
0.000000
0.000000
0.000000
0.000000
0.000000
0.000000
0.000000
0.000000
0.000000
0.000000
0.000000
0.000000
0.000000
0.000000
0.000000
0.000000
0.000000
0.000000
0.000000
0.000000
0.000000
0.000000
0.000000
0.000000
0.000000
0.000000
0.000000
0.000000
0.000000
0.000000
0.000000
0.000000
0.000000
0.000000
0.000000
0.000000
0.000000
0.000000
0.000000
0.000000
0.000000
0.000000
0.000000
0.000000
0.000000
0.000000
0.000000
0.000000
0.000000
0.000000
0.000000
0.000000
0.000000
0.000000
0.000000
0.000000
0.000000
0.000000
0.000000
0.000000
0.000000
0.000000
0.000000
0.000000
0.000000
0.000000
0.000000
0.000000
0.000000
0.000000
0.000000
0.000000
0.000000
0.000000
0.000000
0.000000
0.000000
0.000000
0.000000
0.000000
0.000000
0.000000
0.000000
0.000000
0.000000
0.000000
0.000000
0.000000
0.000000
0.000000
0.000000
0.000000
0.000000
0.000000
0.000000
0.000000
0.000000
0.000000
0.000000
0.000000
0.000000
0.000000
0.000000
0.000000
0.000000
0.000000
0.000000
0.000000
0.000000
0.000000
0.000000
0.000000
0.000000
0.000000
0.000000
0.000000
0.000000
0.000000
0.000000
0.000000
0.000000
0.000000
0.000000
0.000000
0.000000
0.000000
0.000000
0.000000
0.000000
0.000000
0.000000
0.000000
0.000000
0.000000
0.000000
0.000000
0.000000
0.000000
0.000000
0.000000
0.000000
0.000000
0.000000
0.000000
0.000000
0.000000
0.000000
0.000000
0.000000
0.000000
0.000000
0.000000
0.000000
0.000000
0.000000
0.000000
0.000000
0.000000
0.000000
0.000000
0.000000
0.000000
0.000000
0.000000
0.000000
0.000000
0.000000
0.000000
0.000000
0.000000
0.000000
0.000000
0.000000
0.000000
0.000000
0.000000
0.000000
0.000000
0.000000
0.000000
0.000000
0.000000
0.000000
0.000000
0.000000
0.000000
0.000000
0.000000
0.000000
0.000000
0.000000
0.000000
0.000000
0.000000
0.000000
0.000000
0.000000
0.000000
0.000000
0.000000
0.000000
0.000000
0.000000
0.000000
0.000000
0.000000
0.000000
0.000000
0.000000
0.000000
0.000000
0.000000
0.000000
0.000000
0.000000
0.000000
0.000000
0.000000
0.000000
0.000000
0.000000
0.000000
0.000000
0.000000
0.000000
0.000000
0.000000
0.000000
0.000000
0.000000
0.000000
0.000000
0.000000
0.000000
0.000000
0.000000
0.000000
0.000000
0.000000
0.000000
0.000000
0.000000
0.000000
0.000000
0.000000
0.000000
0.000000
0.000000
0.000000
0.000000
0.000000
0.000000
0.000000
0.000000
0.000000
0.000000
0.000000
0.000000
0.000000
0.000000
0.000000
0.000000
0.000000
0.000000
0.000000
0.000000
0.000000
0.000000
0.000000
0.000000
0.000000
0.000000
0.000000
0.000000
0.000000
0.000000
0.000000
0.000000
0.000000
0.000000
0.000000
0.000000
0.000000
0.000000
0.000000
0.000000
0.000000
0.000000
0.000000
0.000000
0.000000
0.000000
0.000000
0.000000
0.000000
0.000000
0.000000
0.000000
0.000000
0.000000
0.000000
0.000000
0.000000
0.000000
0.000000
0.000000
0.000000
0.000000
0.000000
0.000000
0.000000
0.000000
0.000000
0.000000
0.000000
0.000000
0.000000
0.000000
0.000000
0.000000
0.000000
0.000000
0.000000
0.000000
0.000000
0.000000
0.000000
0.000000
0.000000
0.000000
0.000000
0.000000
0.000000
0.000000
0.000000
0.000000
0.000000
0.000000
0.000000
0.000000
0.000000
0.000000
0.000000
0.000000
0.000000
0.000000
0.000000
0.000000
0.000000
0.000000
0.000000
0.000000
0.000000
0.000000
0.000000
0.000000
0.000000
0.000000
0.000000
0.000000
0.000000
0.000000
0.000000
0.000000
0.000000
0.000000
0.000000
0.000000
0.000000
0.000000
0.000000
0.000000
0.000000
0.000000
0.000000
0.000000
0.000000
0.000000
0.000000
0.000000
0.000000
0.000000
0.000000
0.000000
0.000000
0.000000
0.000000
0.000000
0.000000
0.000000
0.000000
0.000000
0.000000
0.000000
0.000000
0.000000
0.000000
0.000000
0.000000
0.000000
0.000000
0.000000
0.000000
0.000000
0.000000
0.000000
0.000000
0.000000
0.000000
0.000000
0.000000
0.000000
0.000000
0.000000
0.000000
0.000000
0.000000
0.000000
0.000000
0.000000
0.000000
0.000000
0.000000
0.000000
0.000000
0.000000
0.000000
0.000000
0.000000
0.000000
0.000000
0.000000
0.000000
0.000000
0.000000
0.000000
0.000000
0.000000
0.000000
0.000000
0.000000
0.000000
0.000000
0.000000
0.000000
0.000000
0.000000
0.000000
0.000000
0.000000
0.000000
0.000000
0.000000
0.000000
0.000000
0.000000
0.000000
0.000000
0.000000
0.000000
0.000000
0.000000
0.000000
0.000000
0.000000
0.000000
0.000000
0.000000
0.000000
0.000000
0.000000
0.000000
0.000000
0.000000
0.000000
0.000000
0.000000
0.000000
0.000000
0.000000
0.000000
0.000000
0.000000
0.000000
0.000000
0.000000
0.000000
0.000000
0.000000
0.000000
0.000000
0.000000
0.000000
0.000000
0.000000
0.000000
0.000000
0.000000
0.000000
0.000000
0.000000
0.000000
0.000000
0.000000
0.000000
0.000000
0.000000
0.000000
0.000000
0.000000
0.000000
0.000000
0.000000
0.000000
0.000000
0.000000
0.000000
0.000000
0.000000
0.000000
0.000000
0.000000
0.000000
0.000000
0.000000
0.000000
0.000000
0.000000
0.000000
0.000000
0.000000
0.000000
0.000000
0.000000
0.000000
0.000000
0.000000
0.000000
0.000000
0.000000
0.000000
0.000000
0.000000
0.000000
0.000000
0.000000
0.000000
0.000000
0.000000
0.000000
0.000000
0.000000
0.000000
0.000000
0.000000
0.000000
0.000000
0.000000
0.000000
0.000000
0.000000
0.000000
0.000000
0.000000
0.000000
0.000000
0.000000
0.000000
0.000000
0.000000
0.000000
0.000000
0.000000
0.000000
0.000000
0.000000
0.000000
0.000000
0.000000
0.000000
0.000000
0.000000
0.000000
0.000000
0.000000
0.000000
0.000000
0.000000
0.000000
0.000000
0.000000
0.000000
0.000000
0.000000
0.000000
0.000000
0.000000
0.000000
0.000000
0.000000
0.000000
0.000000
0.000000
0.000000
0.000000
0.000000
0.000000
0.000000
0.000000
0.000000
0.000000
0.000000
0.000000
0.000000
0.000000
0.000000
0.000000
0.000000
0.000000
0.000000
0.000000
0.000000
0.000000
0.000000
0.000000
0.000000
0.000000
0.000000
0.000000
0.000000
0.000000
0.000000
0.000000
0.000000
0.000000
0.000000
0.000000
0.000000
0.000000
0.000000
0.000000
0.000000
0.000000
0.000000
0.000000
0.000000
0.000000
0.000000
0.000000
0.000000
0.000000
0.000000
0.000000
0.000000
0.000000
0.000000
0.000000
0.000000
0.000000
0.000000
0.000000
0.000000
0.000000
0.000000
0.000000
0.000000
0.000000
0.000000
0.000000
0.000000
0.000000
0.000000
0.000000
0.000000
0.000000
0.000000
0.000000
0.000000
0.000000
0.000000
0.000000
0.000000
0.000000
0.000000
0.000000
0.000000
0.000000
0.000000
0.000000
0.000000
0.000000
0.000000
0.000000
0.000000
0.000000
0.000000
0.000000
0.000000
0.000000
0.000000
0.000000
0.000000
0.000000
0.000000
0.000000
0.000000
0.000000
0.000000
0.000000
0.000000
0.000000
0.000000
0.000000
0.000000
0.000000
0.000000
0.000000
0.000000
0.000000
0.000000
0.000000
0.000000
0.000000
0.000000
0.000000
0.000000
0.000000
0.000000
0.000000
0.000000
0.000000
0.000000
0.000000
0.000000
0.000000
0.000000
0.000000
0.000000
0.000000
0.000000
0.000000
0.000000
0.000000
0.000000
0.000000
0.000000
0.000000
0.000000
0.000000
0.000000
0.000000
0.000000
0.000000
0.000000
0.000000
0.000000
0.000000
0.000000
0.000000
0.000000
0.000000
0.000000
0.000000
0.000000
0.000000
0.000000
0.000000
0.000000
0.000000
0.000000
0.000000
0.000000
0.000000
0.000000
0.000000
0.000000
0.000000
0.000000
0.000000
0.000000
0.000000
0.000000
0.000000
0.000000
0.000000
0.000000
0.000000
0.000000
0.000000
0.000000
0.000000
0.000000
0.000000
0.000000
0.000000
0.000000
0.000000
0.000000
0.000000
0.000000
0.000000
0.000000
0.000000
0.000000
0.000000
0.000000
0.000000
0.000000
0.000000
0.000000
0.000000
0.000000
0.000000
0.000000
0.000000
0.000000
0.000000
0.000000
0.000000
0.000000
0.000000
0.000000
0.000000
0.000000
0.000000
0.000000
0.000000
0.000000
0.000000
0.000000
0.000000
0.000000
0.000000
0.000000
0.000000
0.000000
0.000000
0.000000
0.000000
0.000000
0.000000
0.000000
0.000000
0.000000
0.000000
0.000000
0.000000
0.000000
0.000000
0.000000
0.000000
0.000000
0.000000
0.000000
0.000000
0.000000
0.000000
0.000000
0.000000
0.000000
0.000000
0.000000
0.000000
0.000000
0.000000
0.000000
0.000000
0.000000
0.000000
0.000000
0.000000
0.000000
0.000000
0.000000
0.000000
0.000000
0.000000
0.000000
0.000000
0.000000
0.000000
0.000000
0.000000
0.000000
0.000000
0.000000
0.000000
0.000000
0.000000
0.000000
0.000000
0.000000
0.000000
0.000000
0.000000
0.000000
0.000000
0.000000
0.000000
0.000000
0.000000
0.000000
0.000000
0.000000
0.000000
0.000000
0.000000
0.000000
0.000000
0.000000
0.000000
0.000000
0.000000
0.000000
0.000000
0.000000
0.000000
0.000000
0.000000
0.000000
0.000000
0.000000
0.000000
0.000000
0.000000
0.000000
0.000000
0.000000
0.000000
0.000000
0.000000
0.000000
0.000000
0.000000
0.000000
0.000000
0.000000
0.000000
0.000000
0.000000
0.000000
0.000000
0.000000
0.000000
0.000000
0.000000
0.000000
0.000000
0.000000
0.000000
0.000000
0.000000
0.000000
0.000000
0.000000
0.000000
0.000000
0.000000
0.000000
0.000000
0.000000
0.000000
0.000000
0.000000
0.000000
0.000000
0.000000
0.000000
0.000000
0.000000
0.000000
0.000000
0.000000
0.000000
0.000000
0.000000
0.000000
0.000000
0.000000
0.000000
0.000000
0.000000
0.000000
0.000000
0.000000
0.000000
0.000000
0.000000
0.000000
0.000000
0.000000
0.000000
0.000000
0.000000
0.000000
0.000000
0.000000
0.000000
0.000000
0.000000
0.000000
0.000000
0.000000
0.000000
0.000000
0.000000
0.000000
0.000000
0.000000
0.000000
0.000000
0.000000
0.000000
0.000000
0.000000
0.000000
0.000000
0.000000
0.000000
0.000000
0.000000
0.000000
0.000000
0.000000
0.000000
0.000000
0.000000
0.000000
0.000000
0.000000
0.000000
0.000000
0.000000
0.000000
0.000000
0.000000
0.000000
0.000000
0.000000
0.000000
0.000000
0.000000
0.000000
0.000000
0.000000
0.000000
0.000000
0.000000
0.000000
0.000000
0.000000
0.000000
0.000000
0.000000
0.000000
0.000000
0.000000
0.000000
0.000000
0.000000
0.000000
0.000000
0.000000
0.000000
0.000000
0.000000
0.000000
0.000000
0.000000
0.000000
0.000000
0.000000
0.000000
0.000000
0.000000
0.000000
0.000000
0.000000
0.000000
0.000000
0.000000
0.000000
0.000000
0.000000
0.000000
0.000000
0.000000
0.000000
0.000000
0.000000
0.000000
0.000000
0.000000
0.000000
0.000000
0.000000
0.000000
0.000000
0.000000
0.000000
0.000000
0.000000
0.000000
0.000000
0.000000
0.000000
0.000000
0.000000
0.000000
0.000000
0.000000
0.000000
0.000000
0.000000
0.000000
0.000000
0.000000
0.000000
0.000000
0.000000
0.000000
0.000000
0.000000
0.000000
0.000000
0.000000
0.000000
0.000000
0.000000
0.000000
0.000000
0.000000
0.000000
0.000000
0.000000
0.000000
0.000000
0.000000
0.000000
0.000000
0.000000
0.000000
0.000000
0.000000
0.000000
0.000000
0.000000
0.000000
0.000000
0.000000
0.000000
0.000000
0.000000
0.000000
0.000000
0.000000
0.000000
0.000000
0.000000
0.000000
0.000000
0.000000
0.000000
0.000000
0.000000
0.000000
0.000000
0.000000
0.000000
0.000000
0.000000
0.000000
0.000000
0.000000
0.000000
0.000000
0.000000
0.000000
0.000000
0.000000
0.000000
0.000000
0.000000
0.000000
0.000000
0.000000
0.000000
0.000000
0.000000
0.000000
0.000000
0.000000
0.000000
0.000000
0.000000
0.000000
0.000000
0.000000
0.000000
0.000000
0.000000
0.000000
0.000000
0.000000
0.000000
0.000000
0.000000
0.000000
0.000000
0.000000
0.000000
0.000000
0.000000
0.000000
0.000000
0.000000
0.000000
0.000000
0.000000
0.000000
0.000000
0.000000
0.000000
0.000000
0.000000
0.000000
0.000000
0.000000
0.000000
0.000000
0.000000
0.000000
0.000000
0.000000
0.000000
0.000000
0.000000
0.000000
0.000000
0.000000
0.000000
0.000000
0.000000
0.000000
0.000000
0.000000
0.000000
0.000000
0.000000
0.000000
0.000000
0.000000
0.000000
0.000000
0.000000
0.000000
0.000000
0.000000
0.000000
0.000000
0.000000
0.000000
0.000000
0.000000
0.000000
0.000000
0.000000
0.000000
0.000000
0.000000
0.000000
0.000000
0.000000
0.000000
0.000000
0.000000
0.000000
0.000000
0.000000
0.000000
0.000000
0.000000
0.000000
0.000000
0.000000
0.000000
0.000000
0.000000
0.000000
0.000000
0.000000
0.000000
0.000000
0.000000
0.000000
0.000000
0.000000
0.000000
0.000000
0.000000
0.000000
0.000000
0.000000
0.000000
0.000000
0.000000
0.000000
0.000000
0.000000
0.000000
0.000000
0.000000
0.000000
0.000000
0.000000
0.000000
0.000000
0.000000
0.000000
0.000000
0.000000
0.000000
0.000000
0.000000
0.000000
0.000000
SCALARS Displacement_Mag float 1
LOOKUP_TABLE default
0.858433
0.611545
0.872114
0.899773
0.899773
0.926143
0.926143
0.951536
0.951536
0.976015
0.976015
0.999343
0.999343
1.021184
1.021184
1.041044
1.041044
1.058229
1.058229
1.071965
1.071965
1.081388
1.081388
1.085570
1.085570
1.083552
1.083552
1.074368
1.074368
1.057150
1.057150
1.031722
1.031722
0.998767
0.998767
0.959283
0.959283
0.914382
0.914382
0.865295
0.813396
0.813396
0.760224
0.760224
0.707516
0.707516
0.657229
0.657229
0.611545
4.146724
0.448086
0.220666
0.448895
0.757215
1.050508
1.311731
1.542961
1.767912
1.975720
2.275387
2.541802
2.783307
3.025364
3.306186
3.549881
3.725629
3.877861
3.999064
4.037797
4.059488
4.121514
2.368794
4.573731
5.061924
5.549743
6.013395
6.449494
6.888712
7.107768
7.296961
7.391671
7.765484
7.947600
8.034853
8.055748
8.015398
7.916663
7.658881
7.424164
7.416574
7.199807
7.137963
6.840706
6.535348
6.082192
5.724818
5.444975
5.308842
5.318587
5.102118
4.701383
4.231808
3.827389
3.485221
3.056723
2.696941
2.399446
2.798463
3.169495
3.516988
3.790763
4.092209
4.522207
4.835344
5.145953
5.348825
5.597663
5.965580
6.354112
6.799283
7.312970
7.510178
7.387171
7.221364
7.123394
6.898727
6.644276
6.428516
6.282096
6.309255
6.441011
6.751643
6.930558
7.003859
6.968490
6.860166
6.678857
6.477392
6.381458
6.155626
5.816928
5.588658
5.514286
5.477193
5.413353
5.311355
5.162632
4.954963
4.715261
4.450097
4.247802
4.038348
3.812556
3.548197
3.234368
2.917787
2.618961
0.226699
0.217935
0.592585
0.923693
1.214347
1.411915
1.534648
1.654556
1.797498
1.924916
2.013054
2.093634
2.160569
2.245569
2.315420
4.483180
4.449600
4.771263
4.840889
4.829744
5.100597
5.510649
5.982515
6.413717
6.761840
7.018746
7.201367
7.288464
7.618266
7.864325
7.924303
7.923043
7.749013
7.668571
7.415196
7.286431
7.243494
6.733694
6.454867
6.160861
5.875917
5.730216
5.690927
5.482213
5.097076
4.532857
3.930902
3.594081
3.208882
2.834025
2.534328
0.447541
0.268897
0.532549
0.859462
1.166008
1.444384
1.665464
1.936697
2.097679
2.408175
2.679363
2.944239
3.160804
3.483588
3.731016
3.913340
4.225214
4.364693
4.431492
2.872470
3.370539
3.782256
4.105589
4.397340
4.835402
5.088623
5.154780
5.526906
5.895258
6.250022
6.602222
6.920291
7.310260
7.411268
7.313152
7.187964
7.062149
6.927399
6.761593
6.592904
6.457623
6.400796
6.520840
6.653109
6.739862
6.873893
6.875937
6.825426
6.696815
6.498471
6.404184
6.220944
5.985072
5.812970
5.694319
5.621822
5.550554
5.426076
5.227672
4.997836
4.789846
4.562343
4.398962
4.170103
3.935389
3.672210
3.372238
3.009186
2.651029
0.213141
0.254235
0.284148
0.367648
0.421002
0.487207
0.529009
0.570676
0.610757
0.652401
0.676261
0.688491
0.724121
0.740204
0.762417
0.769195
0.779292
0.777282
0.783148
0.778315
0.774987
0.765621
0.765711
0.766342
0.763770
0.761215
0.747912
0.745427
0.734094
0.735122
0.727897
0.726523
0.715290
0.701435
0.684196
0.670143
0.641733
0.626138
0.597589
0.579384
0.548497
0.534792
0.501123
0.492055
0.463585
0.460941
2.636177
2.522198
2.440477
2.326855
2.216117
2.063692
1.878040
1.708459
1.495998
1.214525
0.914086
0.548250
0.162817
5.170537
5.572309
6.035587
6.447612
6.741966
6.954741
7.103809
7.212971
7.427966
7.632135
7.687398
7.619343
7.310601
7.132042
7.039754
6.982157
6.846559
6.599055
6.285274
6.149148
6.003858
5.815702
5.549112
5.241328
4.088249
3.690265
3.374322
3.005526
2.700500
2.746648
3.705597
4.105604
4.422382
4.704181
4.966224
5.254149
5.454719
5.830050
6.245170
6.590104
6.892468
7.056593
7.320765
7.400704
7.285463
7.162567
7.048413
6.944825
6.856964
6.587446
6.662800
6.709554
6.724196
6.731378
6.698830
6.645621
6.462493
6.436500
6.230547
6.067702
5.990341
5.895831
5.822508
5.754471
5.619310
5.401884
5.159473
4.966134
4.726724
4.576402
4.333125
4.089473
3.838081
3.551086
3.167145
5.136816
5.143362
4.537736
5.110315
3.288627
3.027403
0.267179
0.363890
0.517527
0.641825
0.721841
0.782574
0.821003
0.846708
0.867006
0.876031
0.892808
0.884474
0.884341
0.872552
0.869019
0.845511
0.812486
0.778578
0.717874
0.659171
0.591413
0.541370
0.517313
0.502020
0.491276
0.487052
0.507026
0.537962
0.587073
0.611020
0.645017
0.652333
0.669027
0.654115
0.649883
0.628055
0.618406
0.588399
0.561458
0.524994
0.496236
0.465922
0.417472
0.366857
0.317251
0.606980
0.946969
1.270382
1.564267
1.847298
2.057052
2.339846
2.501817
2.789955
3.035433
3.347640
3.602468
3.821046
4.238636
4.461418
4.647928
4.748224
2.972232
2.852069
2.699904
2.550004
2.377566
2.139515
1.902032
1.607590
1.268596
0.926874
0.546983
7.341633
7.365091
7.055604
6.704357
6.335517
6.248750
6.080199
5.922733
5.694889
5.613317
5.573237
5.101246
4.647815
4.220737
3.877515
3.608565
3.224079
2.915097
2.757331
2.818556
3.130271
3.346260
3.636645
4.037569
4.445712
4.740754
4.975067
5.181484
5.416015
5.728957
5.573461
5.359238
5.373234
5.735107
6.125625
6.557913
6.911669
7.275361
7.398880
7.275935
7.131229
6.987226
6.738171
6.732837
6.732369
6.711244
6.682294
6.632186
6.548293
6.526857
6.419330
6.231978
6.095139
6.010789
5.948518
5.826660
5.623914
5.379566
5.198824
4.969502
4.817461
4.479116
4.241084
3.983582
3.729552
3.476940
3.287609
3.146451
2.996631
2.824497
2.631005
2.380190
2.104902
1.796907
1.456215
1.091569
0.724879
5.245143
5.683296
6.171356
6.510181
6.735681
6.922012
7.038121
7.112511
7.264084
7.412590
7.426563
7.330203
0.671872
1.030002
1.366914
1.697810
1.969891
2.258692
2.467921
2.744482
2.977370
3.264418
3.530901
3.801697
4.095568
4.387303
4.668649
4.858256
4.981512
0.896096
1.043811
1.145179
1.210469
1.256590
1.280704
1.299693
1.307334
1.298893
1.290560
1.262269
1.232686
1.190590
1.148873
1.086066
0.991700
0.877656
0.742248
0.594076
0.472622
0.385011
0.347245
0.333033
0.375300
0.455790
0.576174
0.673426
0.775895
0.831227
0.870465
0.915225
0.930508
0.924643
0.930368
0.918602
0.910675
0.887138
0.867172
0.827235
0.781638
0.737668
6.997190
6.714941
6.595570
6.352391
6.126512
5.961262
5.982549
6.037788
5.845927
5.504850
5.119057
4.710883
4.362321
4.089716
3.837344
3.527304
3.107997
2.829915
2.715947
2.919150
3.119688
3.414872
3.637248
3.967214
4.361021
4.735188
4.990421
5.131314
5.918262
6.242899
6.108085
5.890973
5.751083
5.676575
5.931390
6.356465
6.750174
7.093305
7.315311
7.358944
7.230770
7.086180
6.923218
6.876151
6.828242
6.761309
6.694727
6.630852
6.613446
6.573748
6.485512
6.365042
6.271625
6.185144
6.137718
6.034807
5.858140
5.630818
5.455424
5.267527
5.156566
4.577358
4.333621
4.110104
3.873026
3.671872
3.555914
3.443278
3.294945
3.118352
2.898443
2.634430
2.346147
2.018470
1.661322
1.288424
4.844033
5.128134
1.107788
1.467242
1.804073
2.119414
2.395136
2.684764
2.924704
3.203231
3.461416
3.744586
4.028125
4.298399
4.590184
4.829864
5.048696
5.289285
5.513839
5.810663
6.061086
6.592313
6.768465
6.922821
7.084089
7.182383
7.180943
6.398024
6.226949
1.456994
1.577214
1.656732
1.711511
1.746472
1.747129
1.755264
1.749888
1.730274
1.704905
1.647757
1.599072
1.527401
1.427469
1.296574
1.140633
0.938096
0.744710
0.541303
0.415667
0.320068
0.354884
0.430771
0.596161
0.741124
0.923230
1.035565
1.138914
1.209385
1.248645
1.290546
1.314755
1.310741
1.303341
1.296252
1.293634
1.259730
1.224800
1.174524
6.956645
6.480301
6.269652
5.737811
5.448760
5.085430
4.722566
4.463884
4.315143
4.110368
3.886411
3.469620
2.886949
2.662895
2.735483
2.908468
3.169754
3.343000
3.648103
3.938742
4.273122
4.651657
4.990416
5.229702
5.372007
4.621807
4.426499
3.792084
3.444771
2.999479
2.716816
2.621876
2.747718
2.943937
3.106506
3.377250
3.690213
4.002506
4.153659
4.502228
4.864627
5.200726
5.430564
5.607273
5.825024
5.619661
6.061354
6.350261
6.614882
6.604210
6.467453
6.301154
6.130270
6.910768
7.178951
7.322353
7.308482
7.199465
7.040692
6.980679
6.878460
6.827149
6.777347
6.709918
6.647924
6.563081
6.474538
6.421975
6.369703
6.328116
6.255660
6.121342
5.928499
5.757712
5.568939
5.466482
5.396446
5.370201
5.118912
4.873593
4.622363
4.395553
4.171074
3.969960
3.799888
3.772972
3.705864
3.582274
3.387633
3.152117
2.877131
2.567811
2.223394
1.851418
1.546193
1.903710
2.226035
2.539174
2.817585
3.109806
3.384176
3.661121
3.927118
4.185848
4.475594
4.732057
4.990751
5.224383
5.430820
5.649029
5.827519
6.002743
6.088071
6.104649
6.277463
6.448274
6.612563
6.743977
6.844384
6.913303
6.935006
6.713451
1.989542
2.088489
2.160492
2.192008
2.207391
2.205702
2.198572
2.175773
2.137117
2.087192
2.010139
1.913175
1.797894
1.638082
1.435188
1.207378
0.915265
0.739499
0.467907
0.421498
0.406785
0.630893
0.751956
0.996560
1.187964
1.357382
1.471791
1.555885
1.615440
1.659767
1.688769
1.701607
1.702539
1.699385
1.684021
1.663492
1.610558
6.712216
6.555664
6.221886
7.138705
7.082471
6.993099
6.903727
6.811861
6.719645
6.634409
6.554730
6.550354
6.543412
6.516733
6.479018
6.394431
6.244733
6.073781
5.892488
5.761637
5.676987
5.606955
5.532304
5.338841
5.122737
4.886352
4.652060
4.424724
4.191807
3.987170
4.998997
4.853148
4.028342
3.445383
3.093252
2.781485
2.602567
2.648831
2.745657
2.896154
2.867237
3.265303
3.656784
4.114849
4.555052
5.070275
5.388942
5.613756
5.806011
5.964485
6.171321
6.406726
6.589488
6.681909
6.796047
6.911942
6.820755
6.673841
6.506687
3.709429
3.882635
3.961304
3.829007
3.620734
3.372619
3.072731
2.743104
2.382892
1.974306
2.320378
2.639391
2.944581
3.232196
3.518428
3.793777
4.069475
4.347749
4.596598
4.854827
5.094034
5.310045
5.501131
5.679078
5.835857
5.939254
5.955705
5.941331
5.926353
6.047674
4.202789
4.453320
6.990572
7.219366
7.269687
7.246994
2.490901
2.572655
2.614007
2.640850
2.640274
2.637905
2.618189
2.567286
2.505918
2.407887
2.306691
2.163202
1.978024
1.746899
1.464227
1.164233
0.822959
0.751324
0.702552
0.694498
0.709771
0.994899
1.229101
1.476195
1.657827
1.792528
1.896664
1.968963
2.018612
2.061121
2.084403
2.095181
2.083472
2.068409
2.034927
5.735650
5.392561
2.387835
2.720054
3.028703
3.324354
3.608175
3.886390
4.167242
4.433116
4.677715
4.909603
5.126665
5.320456
5.511744
5.677672
5.821233
7.025458
6.794114
6.673682
6.694092
6.700515
6.677919
6.623214
6.513049
6.362046
6.174720
6.021435
5.900857
5.796942
5.690571
5.564459
5.435609
5.277230
5.094163
4.893865
4.681704
4.463820
4.211107
6.692516
6.584324
7.055448
7.179814
7.143964
5.297953
4.627837
4.333566
4.122469
3.919755
3.693304
3.441205
3.180564
2.826035
2.616917
2.517110
2.523466
2.536163
2.928580
3.402593
3.872989
4.497164
4.921231
5.299741
5.581604
5.801655
5.944089
6.045367
6.220058
6.491315
6.596820
6.729899
6.857454
6.966774
7.011845
7.101029
6.902523
2.871541
2.955527
3.015069
3.034696
3.065724
3.064094
3.039383
2.997050
2.916399
2.808775
2.677493
2.511010
2.308323
2.050750
1.755942
1.408079
1.086991
0.982729
0.957364
0.956372
0.976466
1.217535
1.498676
1.746753
1.958350
2.104620
2.222357
2.310765
2.365326
2.411247
2.445706
2.450519
2.440130
2.420351
4.029541
3.787089
3.517641
3.214673
5.560494
6.831213
6.861252
6.858214
6.335657
6.178820
6.046322
5.927599
5.797772
5.648939
5.484185
5.420053
5.313653
5.178502
5.029092
4.859480
4.680796
4.504301
4.324344
4.129066
3.893421
3.615489
3.300804
5.417556
5.215542
4.671742
4.411046
4.158927
3.919322
3.626206
3.445069
3.233435
2.949927
2.600590
2.357163
2.370241
2.317310
3.313847
2.971249
2.566855
2.276504
2.230623
2.160043
2.101314
2.289868
2.514195
2.975724
3.457530
3.940694
4.419961
5.224955
5.489517
5.741451
5.964238
6.139198
6.344140
6.454803
3.357601
3.405905
3.439786
3.459232
3.446923
3.400938
3.313684
3.167008
3.029809
2.836957
2.621685
2.354496
2.027978
1.694313
1.324389
1.249173
1.183925
1.190336
1.209757
1.502240
1.742049
2.018664
2.235408
2.411772
2.535127
2.625140
2.690332
2.746795
2.779054
2.786520
2.782895
2.762815
3.080031
3.374465
3.661009
3.941224
4.204176
4.447353
4.681375
4.899228
5.089572
5.265971
6.156930
6.323294
6.355443
6.461262
6.525283
6.674165
6.791049
5.014685
4.842326
6.228225
6.107862
5.995450
5.853743
5.680731
5.489201
5.299072
5.351425
5.261504
5.158040
5.039774
4.907738
4.770180
4.628247
4.515093
4.395306
4.210090
3.976317
3.690401
3.749496
3.797142
3.830287
3.835815
3.787406
3.677787
3.521728
3.349551
3.156933
2.917448
2.655119
2.303940
1.955464
1.656703
1.446185
1.402462
1.379708
1.593710
1.766345
2.009121
2.267309
2.536228
2.695780
2.833341
2.921779
2.992577
3.048834
3.083590
3.099974
3.099947
3.394569
3.675691
3.947740
4.193971
4.431373
4.649383
4.829798
4.991309
5.120879
6.207790
6.125065
6.029772
5.869878
5.664471
5.459282
5.262177
5.059380
5.092042
4.945815
4.832466
4.723625
4.612421
4.501347
4.297995
4.051184
3.390524
3.661546
3.917684
4.150850
4.370266
4.553206
4.713170
4.836799
4.916328
4.633161
4.395885
4.145168
3.904948
3.627461
3.327619
2.913520
2.477337
2.179120
2.040531
2.015772
1.964461
1.938734
2.044401
2.249179
2.617019
2.959374
3.471033
3.898150
4.345440
4.700732
4.978529
5.143065
5.293519
5.382958
5.602498
5.854772
4.121429
4.170012
4.194149
4.158511
4.023810
3.819476
3.638858
3.434804
3.226874
2.931533
2.578742
2.182664
1.848245
1.663343
1.610334
1.628211
1.789794
1.986022
2.226093
2.551539
2.796720
2.979236
3.119539
3.205631
3.272217
3.325211
3.367130
5.591233
4.320090
4.087231
3.868325
3.683438
3.524696
2.378334
1.939655
1.824912
1.781331
2.127232
2.505650
2.825150
3.057858
3.248355
3.384043
3.466442
3.522755
3.579142
3.631409
3.868699
4.082724
4.258107
4.405745
4.532038
6.083844
5.879705
4.322385
4.082203
3.833955
3.584338
3.300488
2.069116
1.933153
1.824749
4.839475
4.835469
4.775390
4.576684
4.545348
4.471181
4.392075
2.382849
2.833242
3.107929
3.298781
3.495138
3.628556
3.710062
3.729417
3.798454
3.982166
4.117161
4.213062
2.616656
2.983971
3.392207
3.881036
4.248942
4.580033
4.822111
4.988297
5.165527
5.361837
2.781941
3.338354
3.822078
4.189974
4.471920
4.693948
3.844886
4.130473
4.510036
4.612753
4.377140
4.044672
3.862604
3.704492
3.484024
3.296029
3.932573
3.925044
3.889967
4.192342
3.983731
6.426099
6.336476
6.966548
7.071890
4.935639
4.258985
0.023716
0.564669
0.564669
0.523672
0.523672
0.523672
0.504307
0.504307
0.506372
0.506372
0.506372
0.527507
0.527507
0.563899
0.563899
0.563899
0.611465
0.611465
0.611465
0.666623
0.666623
0.666623
0.726535
0.726535
0.726535
0.789044
0.789044
0.789044
0.852488
0.852488
0.852488
0.915537
0.915537
0.915537
0.977094
0.977094
0.977094
1.036185
1.036185
1.036185
1.091931
1.091931
1.091931
1.143505
1.143505
1.143505
1.190101
1.190101
1.190101
1.230933
1.230933
1.230933
1.265235
1.265235
1.265235
1.292233
1.292233
1.292233
1.311163
1.311163
1.311163
1.321338
1.321338
1.321338
1.322271
1.322271
1.322271
1.313888
1.313888
1.313888
1.296517
1.296517
1.296517
1.270634
1.270634
1.270634
1.236792
1.236792
1.236792
1.195605
1.195605
1.195605
1.147739
1.147739
1.147739
1.147739
1.093879
1.093879
1.093879
1.034730
1.034730
1.034730
0.971022
0.971022
0.971022
0.903477
0.903477
0.903477
0.832808
0.832808
0.832808
0.759745
0.759745
0.759745
0.759745
0.684989
0.684989
0.684989
0.609210
0.609210
0.533062
0.533062
0.533062
0.457162
0.457162
0.457162
0.382066
0.382066
0.382066
0.308264
0.308264
0.236160
0.236160
0.236160
0.166063
0.166063
0.098114
0.098114
0.032353
0.032353
4.079279
2.461555
2.937031
3.379175
3.833447
3.435968
3.540628
3.835270
4.245551
4.544597
4.816702
5.115673
5.315736
5.711624
6.277279
6.946744
7.513127
7.987727
8.384299
8.771038
9.094946
9.479865
9.798937
10.111096
10.308227
10.713057
11.134694
11.410589
11.627720
11.756595
11.725861
11.653620
11.450031
11.217385
11.232838
11.591085
12.064892
12.371322
12.484742
12.692056
12.904450
13.279223
13.689989
14.236973
14.636211
14.878035
15.504038
15.690835
16.229335
16.410636
16.678224
16.914325
17.048692
17.343255
17.797115
18.156172
18.362624
18.401763
18.236749
17.986214
17.520503
17.024652
17.133819
17.051852
16.832774
16.444698
15.909385
15.428860
14.907377
14.544814
14.169141
13.888268
13.545256
13.334881
13.001649
12.699094
12.452382
12.215933
12.063429
12.063275
12.037829
12.058731
11.763268
11.294972
10.846206
11.279581
11.662575
12.095219
12.326538
12.486449
12.496549
12.401455
12.280821
12.323162
12.676867
13.205608
13.466856
13.831141
14.186896
14.258830
14.382537
14.536190
14.378879
14.724683
15.130345
15.571562
16.038542
16.514347
16.958746
17.323251
17.576292
17.746197
17.768359
17.653611
17.401284
17.192912
17.004019
16.667312
16.231460
15.773657
15.709017
15.512936
15.225216
14.923754
15.179808
15.435443
15.523630
15.401462
15.228662
14.879388
14.444638
13.938774
13.362878
12.806607
12.233402
11.753910
11.427010
11.097128
10.940083
10.843765
10.765876
10.591300
10.319546
9.952828
9.675829
9.152611
8.720716
8.346423
8.025464
7.712943
7.439122
7.091176
6.796496
6.588476
6.324413
5.981384
6.181808
5.927814
5.966126
6.126787
6.324397
6.485482
6.576102
6.705112
6.906001
7.109586
7.197822
7.317392
7.371333
7.291646
7.000621
6.894349
6.805114
6.757762
6.651019
6.483124
6.337784
6.192779
5.933126
5.704778
5.107514
4.533912
0.692032
1.319740
1.923527
2.491054
2.996556
3.456918
3.856598
4.192315
4.458515
4.657888
4.788975
4.856578
4.858671
4.811365
4.730258
4.620703
4.485486
4.322601
4.355468
2.212993
2.556727
3.053906
3.597365
3.646982
3.734597
4.159630
4.585547
4.914410
5.186462
5.434328
5.712597
6.010174
6.575472
7.095087
7.625938
8.164052
8.639347
9.013469
9.310118
9.558709
9.815564
9.943576
10.313381
10.629577
10.901513
11.126636
11.385917
11.538574
11.548770
11.511388
11.370517
11.329563
11.478725
11.879985
12.363929
12.719920
12.903005
13.118753
13.304529
13.683224
14.124151
14.583130
14.904590
15.132036
15.223625
15.792098
16.151199
16.420485
16.632899
16.741366
16.789434
16.901077
17.450039
17.815453
18.020569
18.020738
17.807885
17.528207
17.298588
17.080868
16.791805
16.668553
16.486106
16.218703
15.872365
15.573334
15.127256
14.762316
14.369826
14.040895
13.752848
13.533976
13.227068
12.914936
12.689295
12.485870
12.367159
12.309015
12.218522
12.052793
11.682642
11.165582
10.713026
11.229987
11.629648
12.166035
12.637265
12.777362
12.805279
12.723527
12.559558
12.484285
12.564316
12.742831
13.032758
13.378308
13.738794
13.954296
13.988943
14.156038
14.264871
14.494393
14.777652
15.321723
15.836823
16.318888
16.786254
17.161478
17.448678
17.613859
17.641378
17.514539
17.335171
17.131196
16.908733
16.606826
16.234969
15.797046
15.672384
15.445277
15.205196
14.935931
15.179431
15.342198
15.349643
15.225361
15.005395
14.750325
14.481242
14.098189
13.625157
13.086546
12.584966
12.145863
11.860139
11.556856
11.405917
11.246095
11.132047
10.949868
10.683741
10.379158
10.034857
9.579400
9.142473
8.760316
8.407452
8.034294
7.741435
7.442746
7.126857
6.827264
6.524377
6.234466
2.003205
2.135433
2.831458
3.522848
3.766521
3.784052
4.413691
4.928209
5.296226
5.581273
5.835738
6.083491
6.373823
6.856165
7.384127
7.914961
8.470745
8.944030
9.320574
9.610529
9.817742
10.008795
10.195526
10.424241
10.661208
10.864425
11.041984
11.209701
11.322272
11.356574
11.387902
11.401850
11.462939
11.707356
12.143449
12.680591
13.083379
13.420127
13.584197
13.751142
14.117172
14.511047
14.840584
15.168898
15.323734
15.390726
15.955465
16.416529
16.620841
16.620803
16.753938
17.195889
17.518083
17.654918
17.654926
17.448513
17.146623
16.877973
16.614022
16.459634
16.319478
16.156717
15.766107
15.324608
14.900381
14.541217
14.205219
13.976522
13.739400
13.453513
13.181806
12.986014
12.922554
12.736329
12.597829
12.400720
12.071254
11.545095
11.027916
10.562743
11.094697
11.676341
12.267595
12.981857
13.112487
13.140403
13.117822
12.875638
12.754524
12.741715
12.856605
13.020400
13.179029
13.294773
13.539268
13.744385
13.939958
14.216038
14.476990
14.784512
15.240321
15.717573
16.191496
16.648902
17.035471
17.329105
17.492182
17.521816
17.430433
17.284287
17.077399
16.841814
16.582991
16.280814
16.020014
15.595071
15.376049
15.114946
15.235192
15.154073
15.262784
15.254518
15.109952
14.997527
14.832626
14.627027
14.330404
13.914848
13.437810
12.961000
12.572771
12.281577
12.012390
11.790692
11.634016
11.485003
11.320521
11.086303
10.749330
10.376420
9.926414
9.497144
9.126207
8.774907
8.400206
8.116773
7.814873
7.472059
7.117408
6.673165
6.293787
1.832143
1.679171
2.908710
3.566326
3.777012
4.102088
4.744748
5.259519
5.636813
5.940355
6.194563
6.447968
6.683207
7.160822
7.707678
8.247368
8.815708
9.317433
9.691788
9.970417
10.175150
10.352245
10.490136
10.721455
10.904589
11.063843
11.172370
11.265990
11.301067
11.366810
11.438959
11.485002
11.605562
11.906018
12.435268
13.015010
13.465535
13.826894
14.088144
14.221629
14.515532
14.849330
15.106861
15.331927
15.484448
15.514424
15.889997
16.257136
16.536998
16.649988
16.629925
17.134620
17.408922
17.457781
17.315964
17.179398
16.884702
16.600272
16.599333
16.573925
16.495228
16.256851
16.026941
15.631887
15.265673
14.908243
14.566030
14.239982
13.952544
13.834095
13.559254
13.415379
13.494315
13.070943
12.870679
12.607982
12.179766
11.627716
11.047255
10.859150
11.105660
11.730749
12.335381
12.979648
13.519219
13.514065
13.563526
13.127599
13.007371
13.030738
13.101309
13.258107
13.341471
13.506704
13.618538
13.746280
13.912650
14.125139
14.421842
14.781377
15.216348
15.663796
16.113652
16.562258
16.950757
17.248843
17.427170
17.446360
17.401016
17.246790
17.047807
16.818162
16.594674
16.379918
16.109428
15.851905
15.613858
15.380055
15.318206
15.300943
15.250021
15.239837
15.170626
15.079434
14.984769
14.840926
14.601454
14.231961
13.788888
13.342218
12.952800
12.659457
12.401534
12.182725
12.003514
11.844724
11.686782
11.450194
11.090885
10.689041
10.224569
9.787163
9.416609
9.131958
8.822043
8.521174
8.215708
7.884236
7.471592
6.830636
6.391192
6.351900
6.286572
6.155827
5.854047
5.859935
6.144603
6.362774
6.602630
6.777033
6.858731
6.981153
7.141226
7.311767
7.378231
7.364231
7.357385
7.271030
7.116524
7.107322
7.080584
7.053432
7.010290
6.968396
6.906141
6.748491
6.470169
6.302315
6.164160
5.621915
5.109280
2.198461
1.920436
14.004114
14.244400
4.650943
4.725798
4.930585
5.080420
5.194602
5.277488
5.320336
5.313188
5.242907
5.102164
4.889916
4.607532
4.257676
3.843495
3.375504
2.835714
2.216629
1.551780
0.840464
0.873042
0.942187
0.899164
0.896679
0.819648
0.803934
0.749666
0.722510
0.732129
0.724838
0.758820
0.744309
0.745847
0.808440
0.824716
0.848280
0.904004
0.906827
0.912586
0.950464
0.946344
0.967322
0.948712
0.925175
0.927351
0.933580
0.936953
0.948478
0.952647
0.938730
0.924811
0.914982
0.908949
0.944954
0.950366
0.988633
1.048693
1.085058
1.116264
1.147747
1.188220
1.212789
1.232395
1.257903
1.276571
1.285677
1.307980
1.326172
1.344984
1.357370
1.368439
1.378903
1.387118
1.391691
1.390418
1.387019
1.382662
1.382092
1.378949
1.364623
1.353071
1.346183
1.311167
1.289988
1.254234
1.216882
1.175561
1.105676
1.067490
1.032659
0.986382
1.028913
1.032084
1.053925
1.063737
1.064259
1.078047
1.086154
1.095629
1.091734
1.088882
1.071806
1.061543
1.045362
1.031691
1.011592
0.987284
0.964002
0.944527
0.915492
0.885132
0.857073
0.835861
0.795193
0.769303
0.741533
0.714881
0.690192
0.665428
0.632367
0.609764
0.592609
0.572323
0.555133
0.545152
0.533288
0.531020
0.527307
0.533851
0.544315
0.560359
0.566580
0.599078
0.660178
0.683591
0.689871
0.769469
0.763123
0.688498
0.727074
0.552962
0.517088
0.448780
0.337851
0.271010
0.204142
0.170119
0.145376
0.305294
0.688426
1.010429
1.234176
1.349519
1.404021
1.458857
1.571654
1.709155
1.744784
1.804964
5.879542
5.910678
6.060157
6.690812
6.913030
7.080419
7.139740
7.225117
7.376348
7.536826
7.611284
7.544216
7.468285
7.319507
6.519624
6.420084
5.581304
5.671432
5.715015
5.730630
5.698294
5.610261
5.455219
5.230656
4.937876
4.575880
4.153532
3.669743
3.094187
2.417426
1.700717
7.327704
7.335127
7.334830
7.321471
7.273634
7.169889
6.953020
6.782860
6.603912
6.528878
6.018723
5.435812
13.357281
13.690377
10.564469
10.696288
13.319550
13.703269
13.523417
13.580144
1.769721
1.781871
1.710026
1.615466
1.509857
1.419760
1.344740
1.316729
1.295614
1.286985
1.259397
1.250372
1.316143
1.362586
1.428459
1.502465
1.532662
1.570462
1.604861
1.622130
1.632564
1.605891
1.550467
1.507439
1.558575
1.624457
1.660788
1.680807
1.680693
1.667328
1.658554
1.651825
1.676410
1.691420
1.713310
1.747673
1.777540
1.796261
1.821397
1.844521
1.861001
1.875483
1.897284
1.911872
1.922094
1.934637
1.950381
1.957969
1.969318
1.977802
1.984301
1.987960
1.989982
1.988367
1.983177
1.975309
1.973004
1.967909
1.957191
1.951921
1.932415
1.903394
1.867788
1.824382
1.764449
1.714017
1.663440
1.604904
1.559940
1.535626
1.553673
1.576664
1.602675
1.613809
1.633383
1.649663
1.653551
1.668247
1.682646
1.678941
1.664505
1.644006
1.617655
1.596553
1.585997
1.567848
1.549216
1.537192
1.515796
1.492669
1.473460
1.452989
1.430886
1.413245
1.398082
1.384238
1.372107
1.364160
1.354139
1.346405
1.342919
1.339952
1.338881
1.349638
1.354446
1.354107
1.367278
1.380786
1.388589
1.399676
1.424860
1.433746
1.439930
1.441124
1.396234
1.325513
0.935523
1.300106
1.126192
1.327146
1.081176
0.896561
0.700744
0.609550
0.520038
0.421823
0.667690
0.994723
1.221713
1.241988
1.302874
1.354620
1.450715
1.454389
1.576325
1.619619
7.583103
7.615070
7.627104
7.621837
7.596806
7.520982
7.371193
7.158603
6.928006
6.968032
6.953973
6.493597
6.063082
5.918116
5.806272
6.052481
6.361838
6.747353
6.793440
6.868710
7.033221
7.243825
7.386294
7.385189
7.737022
7.821905
7.711234
2.578571
2.620120
2.493882
2.322603
2.171785
2.022588
1.917494
1.861936
1.827771
1.802110
1.742602
1.714854
1.793040
1.894494
1.990832
2.083350
2.154216
2.221791
2.284348
2.318775
2.338028
2.304382
2.202129
1.978354
2.206376
2.341491
2.410399
2.446676
2.461195
2.461637
2.452337
2.460747
2.470871
2.522624
2.553402
2.579919
2.599190
2.612703
2.622237
2.636944
2.651967
2.664821
2.680291
2.689929
2.698667
2.708167
2.719397
2.726500
2.733936
2.744421
2.749943
2.753923
2.756444
2.754652
2.753387
2.750888
2.752826
2.754828
2.758181
2.760250
2.749717
2.724202
2.686501
2.641805
2.586658
2.534206
2.477710
2.416774
2.370104
2.339868
2.362758
2.392076
2.421748
2.440188
2.462541
2.475697
2.476516
2.494049
2.517981
2.523757
2.489704
2.449852
2.415386
2.390602
2.380767
2.366728
2.358274
2.348102
2.332181
2.312204
2.293961
2.275871
2.258582
2.246055
2.233101
2.222986
2.219425
2.216071
2.214353
2.209954
2.210853
2.213420
2.218236
2.227285
2.232745
2.241299
2.244836
2.250405
2.251096
2.267998
2.273129
2.274322
2.250989
2.197097
2.084733
1.831927
1.470862
1.278138
1.517414
1.224121
1.495669
1.205576
0.978894
0.930963
0.847758
1.106656
1.249919
1.311918
1.213465
1.274117
1.394208
1.516039
1.602113
1.665944
6.084695
6.103596
6.087555
6.033170
5.927092
5.759807
5.525852
5.221739
4.850746
4.433081
3.941488
3.311468
1.202056
1.290077
1.184989
1.295909
1.455749
1.524073
1.586236
1.722659
1.916011
2.226134
2.598822
2.954814
3.487108
3.810163
4.608041
5.236366
5.696039
6.049618
6.331362
6.582535
6.844299
7.142394
7.526215
8.065138
8.609823
9.216504
9.736076
10.114154
10.382617
10.603101
10.770897
10.936281
11.127293
11.268830
11.383057
11.448931
11.478033
11.586178
11.611847
11.739886
12.020094
12.670867
13.332507
13.813361
14.167529
14.516750
14.863793
14.646957
14.453578
14.537116
14.657671
14.962508
15.230719
15.376096
15.527753
15.589077
15.575377
15.920033
16.259861
16.480001
16.543849
16.968804
17.255001
17.498910
17.564629
17.571803
17.304487
16.912033
16.739902
16.665052
16.521225
16.255501
15.955628
15.631843
15.281365
14.904020
14.410315
14.083630
13.914952
13.899197
14.084108
14.328252
13.958815
13.628402
13.366127
13.146385
12.860395
12.421235
11.918253
11.463321
11.227082
11.060363
10.983403
10.752007
10.772376
11.264781
11.875773
12.463068
13.076298
13.654225
14.170533
14.064195
13.967569
13.899316
13.857099
13.917931
14.049000
14.241903
13.835915
13.476257
13.238218
13.180691
13.319639
13.421832
13.503463
13.565210
13.696517
13.810750
14.372010
14.749880
15.191405
15.631369
16.070224
16.506834
16.897984
17.201803
17.386740
17.435555
17.406828
17.235071
17.044463
16.809273
16.638633
16.490824
16.276079
16.043556
15.822518
15.638044
15.480127
15.419621
15.354654
15.331451
15.294813
15.251915
15.188185
15.113126
14.931922
14.605351
14.144211
13.697676
13.324978
13.023294
12.775201
12.554425
12.373729
12.218730
12.064428
11.836391
11.354683
10.884417
10.396069
9.974009
9.645717
8.966803
8.659570
8.376974
8.137016
6.927734
6.517893
6.374891
5.983318
5.926261
1.219992
1.417893
1.524259
1.573949
1.735964
1.897934
2.158523
2.519330
2.929618
3.375295
3.604929
4.098776
5.171908
5.815574
6.217707
6.512135
6.756319
7.000369
7.262205
7.575258
7.993192
8.512069
9.065825
9.637345
10.163019
10.554090
10.832426
11.044446
11.229740
11.403310
11.568879
11.678116
11.759414
11.802068
11.822893
11.815123
12.121964
13.264071
13.729904
14.155440
14.502208
14.814258
15.122522
15.472418
15.251009
15.059500
14.952783
15.033665
15.163314
15.399649
15.627436
15.809196
15.937702
16.329907
16.571023
16.811819
17.039113
17.359115
17.572295
17.693875
17.636554
17.429097
17.216071
17.087546
16.871465
16.681854
16.406966
16.272651
16.000975
15.667317
15.285879
14.898986
14.565342
14.337080
14.207975
14.946424
14.570683
14.207454
13.879653
13.618511
13.416051
13.143018
12.725833
12.272903
11.862473
11.613779
11.428067
11.305684
11.223170
10.979245
10.903749
11.086205
11.474135
12.043330
12.602003
13.182384
13.742342
14.278912
14.780271
14.650782
14.508004
14.360738
14.215858
14.098059
14.215993
14.406041
14.652394
14.945153
14.502975
13.575941
13.753522
13.840971
13.845141
13.816310
13.959075
14.068913
13.049645
12.568044
14.231550
14.015001
14.302768
14.259026
5.762363
6.088187
6.362716
6.747488
7.109988
7.109752
7.130372
7.181785
7.356454
7.572792
7.720350
7.656526
7.919843
8.069147
7.955618
7.872757
7.878967
7.882749
7.880226
7.881399
7.848782
7.723167
7.476504
7.398392
7.297239
6.893290
6.491887
3.548646
3.216017
2.957204
2.739668
2.555296
2.420457
2.348084
2.318407
2.261431
2.191541
2.022285
2.231103
2.365669
2.513323
2.625765
2.737105
2.847577
2.923725
2.991578
3.021918
2.994444
2.877245
3.053933
3.125633
3.168323
3.186817
3.192177
3.208716
3.226475
3.282341
3.325774
3.367750
3.396026
3.417457
3.431173
3.441751
3.452449
3.459615
3.471132
3.487321
3.498020
3.509685
3.516999
3.528424
3.534889
3.546849
3.554420
3.562385
3.569467
3.573283
3.576158
3.578899
3.583269
3.590525
3.604962
3.623026
3.640336
3.640662
3.615283
3.575857
3.529104
3.471248
3.417187
3.356030
3.287601
3.234962
3.201319
3.230320
3.271542
3.307358
3.330357
3.348659
3.362276
3.358646
3.372971
3.411096
3.443826
3.368205
3.301467
3.257364
3.233136
3.222781
3.217553
3.215679
3.210709
3.193781
3.171043
3.153757
3.135639
3.115397
3.101897
3.090651
3.082333
3.079999
3.079834
3.081392
3.078236
3.081490
3.084953
3.086914
3.101553
3.099455
3.105250
3.108322
3.100846
3.087871
3.089671
3.080359
3.037629
2.983676
2.891037
2.716639
2.434564
2.074926
1.633827
1.486226
1.498455
1.232829
1.323477
6.466215
6.420524
6.339851
6.221762
6.040234
5.788913
5.470203
5.099470
4.685108
4.215833
14.755899
15.199661
15.622265
16.043031
16.465011
16.856887
17.178653
17.384261
17.450626
17.417157
17.273088
17.064548
16.754956
16.482779
16.252202
16.029495
15.829619
15.656076
15.449468
15.468867
15.479819
15.483160
15.453976
15.346611
15.100057
14.492768
14.035246
13.661172
13.367035
13.125000
12.924569
12.750448
12.602990
12.469255
12.194798
11.735299
11.077448
10.530727
10.013338
5.729052
6.106326
6.262620
6.798258
7.093489
7.389412
7.456191
7.457556
7.445370
7.415536
7.605073
7.868947
8.122293
8.289451
8.214832
8.110156
8.116089
8.110299
8.121355
8.107500
8.094502
8.032955
7.922077
7.786710
7.626515
7.467423
7.172491
6.833701
6.525801
6.315462
7.453322
8.029036
6.006717
6.009981
14.792737
15.251637
15.633854
16.004480
16.404753
16.798768
17.147558
17.402161
17.502631
17.472038
17.360023
17.168812
16.914965
16.679342
16.453844
16.225231
15.988930
15.787050
15.614903
15.680379
15.732246
15.785151
15.807377
15.796400
15.743225
14.737857
14.305870
13.953735
13.669515
13.480941
13.293993
13.121917
12.961535
12.813163
12.595319
12.336534
11.134755
10.570161
9.893526
9.289299
9.524129
15.255188
15.776130
11.660709
12.158151
9.409498
9.114427
8.878231
8.704218
8.578800
8.492663
7.951268
7.427970
6.954833
6.605154
6.359712
6.030580
5.836138
5.825208
6.083534
6.112532
6.068949
6.173598
6.748947
6.642390
6.509007
6.303669
6.026274
5.684878
5.308199
4.928253
4.571689
4.154444
3.780710
3.478729
3.215530
2.997877
2.834604
2.769717
2.750188
2.728661
2.589062
2.851758
2.988574
3.141316
3.303697
3.419986
3.532919
3.612832
3.669891
3.693060
3.698923
3.747080
3.783597
3.806972
3.825613
3.850039
3.884364
3.953998
3.995013
4.084281
4.136719
4.173230
4.205169
4.226051
4.240025
4.249400
4.259795
4.272912
4.293432
4.303498
4.317244
4.329470
4.337482
4.352293
4.361929
4.374247
4.388979
4.395314
4.404399
4.411431
4.416372
4.429167
4.445002
4.471724
4.506879
4.546953
4.560951
4.531065
4.482521
4.425480
4.363982
4.306744
4.238806
4.160412
4.093017
4.050442
4.085532
4.139501
4.192962
4.228027
4.244654
4.247438
4.242214
4.247177
4.299442
4.537446
4.250880
4.144351
4.094593
4.075270
4.071603
4.075923
4.082247
4.080654
4.067198
4.038263
4.013634
3.992235
3.972866
3.958770
3.946034
3.934997
3.935572
3.932965
3.929811
3.931346
3.938626
3.936217
3.943180
3.932558
3.942341
3.940920
3.929215
3.920171
3.898566
3.871069
3.827073
3.766529
3.667469
3.529438
3.313259
3.049343
2.608158
2.181369
1.695586
1.383460
1.384894
12.177404
12.644160
12.965375
13.706884
14.103463
14.499128
14.814798
15.103939
15.367480
15.671589
16.008458
15.846000
15.665878
15.501868
15.311604
15.487079
15.643493
15.842317
16.033057
16.228847
16.477756
16.805152
17.014170
16.759648
16.881062
17.104064
17.391520
17.623459
17.764477
17.700182
17.557758
17.379449
17.205032
16.998944
16.698216
16.393227
16.047993
15.663494
15.290695
15.002129
14.687192
17.584234
17.727591
17.681629
17.570539
17.423895
17.242197
17.069809
16.939145
16.721712
16.415386
15.978793
16.171958
15.504801
15.033401
14.662560
14.405737
15.321837
15.574945
15.181601
14.801065
14.414316
14.049579
13.786216
13.681371
13.441999
13.055846
12.626547
12.247491
11.986698
11.791496
11.618365
11.507206
11.404994
11.147095
11.016604
11.100046
11.374221
11.708136
12.230906
12.757312
13.279566
13.799158
14.348893
14.878486
15.363185
15.248050
15.095066
14.909722
14.693973
14.465674
14.719102
15.022900
15.364396
15.717481
15.305006
14.843642
7.750697
8.098600
8.373469
8.427260
8.383363
8.278316
8.318945
8.329796
8.288536
15.897129
16.007742
16.077893
16.133411
16.183537
16.205177
16.237817
16.226549
15.871777
15.413790
14.954137
14.549576
14.190611
13.902769
13.835854
13.676224
13.489534
13.320442
13.153594
12.977703
12.754873
12.583547
12.404975
12.016396
11.588811
11.132606
10.661617
10.161946
9.764512
9.537679
9.357495
9.220449
9.117812
9.020903
8.922159
8.392421
7.862329
7.353102
6.900678
6.660523
6.371252
6.120235
5.876799
5.766555
5.868720
6.043266
6.027571
6.080419
6.589108
6.846212
7.094085
7.410024
7.702554
7.783994
7.842420
7.829218
1.288202
1.571544
1.813530
2.057136
2.262132
2.367790
2.768528
3.172846
3.478086
3.854293
4.137219
4.970398
6.372959
6.672710
6.942011
7.165092
7.398881
7.652911
7.992295
8.426915
8.959921
9.516858
10.111295
10.638363
11.032163
11.301552
11.509486
11.692268
11.857036
11.993844
12.085598
12.139371
12.172833
8.269706
8.259170
8.185181
8.045385
7.870531
7.668360
7.431944
7.285244
7.047243
6.911448
6.785728
6.549599
6.232213
5.849681
5.438308
5.096353
4.901458
4.567016
4.210232
3.873599
3.583292
3.345333
3.112260
3.154938
3.133042
3.207876
3.265045
3.329074
3.417462
3.642745
3.814120
3.966490
4.078124
4.171503
4.250641
4.305962
4.330844
4.348324
4.349932
4.360951
4.387785
4.426094
4.473233
4.461469
4.650763
4.767346
4.853140
4.911004
4.949956
4.981778
5.002469
5.018093
5.032840
5.054401
5.071918
5.092322
5.110609
5.125479
5.144279
5.158213
5.176763
5.189380
5.206030
5.217710
5.231708
5.240817
5.255512
5.268121
5.297578
5.337110
5.396346
5.462628
5.482905
5.451336
5.382147
5.310624
5.240280
5.163248
5.082226
4.994991
4.915299
4.856440
4.908156
4.974660
5.047358
5.097908
5.120195
5.117600
5.100061
5.085447
5.146621
5.327142
5.075013
4.944545
4.905859
4.900111
4.913230
4.930464
4.943478
4.947905
4.933359
4.899957
4.865734
4.841201
4.816722
4.797462
4.784190
4.773121
4.770905
4.771000
4.765331
4.767001
4.762461
4.767607
4.761923
4.758750
4.749336
4.739585
4.714728
4.680852
4.644886
4.592124
4.527772
4.427320
4.300807
4.137988
3.917988
3.581762
3.185535
2.597998
2.104394
1.598526
5.336621
5.799516
1.956611
2.295837
2.642726
2.961494
15.962886
16.133628
16.284349
16.398708
16.580309
16.824810
17.165813
17.317528
17.739334
17.722972
16.153064
16.291989
16.370823
16.432976
16.503254
16.574113
16.573835
16.550352
16.452375
16.227787
15.966754
15.574419
15.160966
14.762057
14.328581
14.070197
13.854523
13.651644
13.479477
13.288517
13.117188
12.939537
12.754161
12.575723
12.221829
11.858174
11.471748
11.103461
10.703458
9.995434
9.819140
9.720185
9.621684
9.525870
9.413709
9.282079
8.798325
8.283756
7.759516
7.229210
6.746479
6.628092
3.540571
4.707718
6.032533
7.005308
7.264880
7.503803
7.737180
8.012787
8.376379
8.838538
9.383919
9.956039
10.547333
11.094304
11.516795
11.777559
11.966242
12.146576
12.296175
12.406205
12.483497
12.529845
12.573918
8.228380
8.468192
8.540252
8.470119
8.525042
8.404343
8.231857
8.424442
8.355130
8.212447
8.025040
7.811572
7.559085
7.261876
7.117749
14.035271
13.805382
13.379230
12.952684
12.596799
12.330664
12.118774
11.939509
11.750094
11.639484
11.517692
11.299150
11.123087
11.100480
11.302280
11.616519
11.959915
12.453842
12.944948
13.336189
13.755655
14.405128
14.961323
15.457365
15.899227
15.802947
15.674950
15.505075
15.271843
15.015935
7.101115
6.771516
6.394868
5.956806
5.389950
4.933859
4.541442
4.174364
3.868149
3.595097
3.602516
3.716507
3.781763
3.868874
3.934926
4.111722
4.326614
4.461457
4.579157
4.680554
4.767017
4.814809
4.830017
4.828454
4.823740
4.823219
4.922308
4.982833
4.679100
4.946624
5.209388
5.384857
5.500767
5.580600
5.641364
5.680174
5.709192
5.742616
5.771829
5.798903
5.824938
5.859317
5.883824
5.909149
5.931187
5.954078
5.972562
5.992448
6.013785
6.032778
6.040836
6.063963
6.077612
6.098282
6.133886
6.185997
6.267295
6.356134
6.438994
6.361744
6.258886
6.163594
6.072820
5.988315
5.889992
5.775469
5.657690
5.618832
5.654674
5.764811
5.869780
5.933337
5.969141
5.964341
5.926296
5.870063
5.818577
5.785250
6.312141
5.941280
5.779270
5.702471
5.689654
5.703570
5.732761
5.767801
5.796219
5.813848
5.789175
5.745877
5.700085
5.668371
5.641003
5.616441
5.598590
5.587142
5.577929
5.574680
5.572368
5.567819
5.571376
5.566802
5.556108
5.539983
5.526225
5.487136
5.448306
5.400707
5.337240
5.260164
5.159118
5.033340
4.888007
4.709562
4.462633
4.143594
3.634537
3.086637
2.473276
16.413156
16.658098
16.686257
16.730526
16.797950
16.864883
16.880402
16.842549
16.756081
16.605537
16.196187
15.714365
15.336383
15.024358
14.703325
14.435197
14.191730
13.971892
13.760274
13.564369
13.387028
13.251202
13.091511
12.909625
12.687121
12.369442
12.024414
11.675272
11.225654
11.016874
10.690229
10.301950
10.267765
10.195911
10.112640
10.014972
9.895290
9.742775
9.559342
9.118441
8.653950
8.152966
7.612954
7.151856
6.503877
6.420366
6.127832
6.290397
6.017732
5.990728
5.854107
5.786238
5.871451
5.907385
6.059145
6.191084
6.184819
5.950339
5.722753
5.591789
5.789479
5.891980
5.987304
6.134757
6.307344
6.494805
6.403020
13.454541
13.265698
15.365335
15.636974
15.897861
16.272334
17.392318
17.569817
17.581236
17.480282
17.316115
17.102748
16.887559
16.660676
6.691651
6.929025
7.152868
7.386163
7.659079
7.901385
8.037715
8.141621
8.231363
15.794500
16.013464
16.198511
15.796170
15.411765
15.025358
14.563875
13.072552
13.444876
13.621342
13.825443
14.086610
14.465825
14.802605
15.076877
15.343067
15.604328
15.877929
16.133479
16.413676
16.344480
16.235466
16.123995
15.353040
15.743006
16.168454
16.485840
16.047158
15.656875
2.883419
3.271703
3.652673
4.126215
6.776521
6.511826
8.543323
8.446770
8.285112
8.102716
7.894824
7.646064
7.345836
7.000119
6.912403
14.253022
13.668774
13.237606
12.891011
12.639716
12.423442
12.218208
12.001197
11.792710
11.655325
11.666764
11.469371
11.231407
11.127098
11.213887
11.483244
11.813364
12.209515
12.706500
13.215940
17.499842
17.656434
17.672966
17.650811
17.643563
17.667263
17.648688
17.558122
17.402978
17.178850
16.804242
17.050337
6.517434
6.073149
5.594713
5.159611
4.763147
4.100297
4.054392
4.180453
4.299204
4.364358
4.410069
4.634953
4.799374
4.930261
5.023977
5.110753
5.187695
5.234058
5.228196
5.202538
5.177921
5.220638
5.349609
4.872057
5.048628
5.392351
5.709329
5.950007
6.096209
6.191830
6.269858
6.335184
6.386793
6.428349
6.466677
6.512895
6.563554
6.604452
6.638097
6.671209
6.699503
6.728363
6.748429
6.775254
6.806655
6.825423
6.846251
6.862042
6.884640
6.910541
6.944440
7.004369
7.101445
7.252362
7.571940
7.251527
7.089117
6.966768
6.866034
6.763214
6.647100
6.492311
6.311908
6.185887
6.345885
6.518736
6.629378
6.731433
6.786769
6.773755
6.722419
6.618484
6.460096
6.583472
6.116027
5.630381
5.244619
4.954467
4.483627
4.649779
4.674287
4.798723
5.028279
5.122594
5.199158
5.304757
5.366678
5.415160
5.466100
5.534848
5.578156
5.514816
5.445621
5.426345
5.455300
5.071488
5.231891
5.482919
5.849500
6.226059
6.465826
6.632695
6.755867
6.850026
6.931463
7.006907
7.069670
7.127966
7.194563
7.262276
7.314468
7.360697
7.404687
7.442582
7.475381
7.506228
7.544663
7.571404
7.606274
7.628981
7.646246
7.670823
7.698468
7.727018
7.780712
7.861549
8.050624
8.372976
8.024515
7.838859
7.718475
7.605941
7.478418
7.336450
7.136360
6.851801
6.631840
7.004942
7.144985
7.318810
7.463384
7.578736
7.552489
7.483393
7.350043
7.139519
6.731799
6.205195
12.978024
13.316153
13.646176
13.799978
13.970850
14.134668
14.404246
14.735475
15.044805
15.308931
15.553029
15.814302
16.064712
16.215528
16.427942
16.715029
16.713823
16.692334
16.631440
16.573208
16.551088
16.599056
16.656548
16.632493
16.835961
17.053646
17.219950
17.404159
17.569811
17.643948
17.672636
17.583634
17.543113
17.527068
17.559658
6.209794
6.053978
5.774745
5.606414
5.608871
5.714087
5.772297
5.896858
6.041005
6.206859
6.400671
6.588890
6.777303
6.990398
7.142854
7.545288
7.765368
7.900078
8.105740
8.277628
8.392295
8.475325
3.500879
3.920106
4.327914
4.993701
5.373916
5.688568
6.220087
6.569969
6.854569
7.066334
7.200021
7.789101
8.039219
8.332120
8.730321
9.215339
9.758338
10.317028
10.884377
11.424886
11.963974
12.189794
12.354460
12.534894
12.686927
12.786284
12.860117
12.922002
5.408910
5.515136
5.696786
5.784128
5.772003
5.770645
5.755720
5.741297
5.741807
5.814165
5.580100
5.257744
5.493998
5.893029
6.265574
6.674469
6.910575
7.124650
7.268461
7.383060
7.489497
7.580522
7.669309
7.758697
7.846061
7.925680
8.000317
8.059779
8.110933
8.153702
8.198806
8.242124
8.282014
8.328124
8.365453
8.387653
8.410665
8.438961
8.455768
8.479180
8.515421
8.580565
8.701655
8.921295
8.930145
8.447176
8.567645
8.506937
8.418602
8.285662
8.135015
7.931100
7.785059
7.455000
7.109622
7.360848
7.668048
7.886643
8.121724
8.438548
8.304816
8.216333
8.112283
7.934822
7.248822
6.730951
6.362524
6.387814
6.415390
6.444808
6.484104
6.525401
6.579555
6.638606
6.683463
6.635927
6.566289
6.516449
6.471872
6.440119
6.412181
6.391615
6.378291
6.362548
6.348466
6.343568
6.339206
6.335237
6.328666
6.312816
6.294976
6.251277
6.203731
6.139633
6.057566
5.979398
5.869545
5.733584
5.570008
5.412988
5.217816
4.970576
4.602452
4.122014
8.576695
16.344567
16.489346
16.605309
16.716738
16.366729
16.013717
15.648930
15.302184
14.991809
14.777704
13.834954
13.436004
13.128856
12.922868
12.720671
12.486319
12.217277
11.921338
11.983735
11.658198
11.423565
11.200833
11.160053
11.351122
11.643791
11.942435
12.421910
12.925700
13.430286
13.961780
14.522713
15.056752
15.544956
15.979342
16.367532
16.304669
16.214146
16.088856
15.902305
15.665373
14.302388
14.751292
16.104796
16.713914
16.945344
17.081859
16.685397
17.354046
17.606288
17.704998
17.656572
17.503053
17.306984
17.109791
16.896429
6.958347
7.096614
7.173322
7.236768
7.292636
7.354813
7.462985
7.711367
7.464433
7.373225
7.301493
7.253461
7.218660
7.188747
7.157345
7.129581
7.111232
7.097798
7.087329
7.078492
7.069890
7.058710
7.039144
7.004311
6.943245
6.860635
6.758621
6.641778
6.532605
6.407962
6.247677
6.031726
5.868256
5.681117
5.422699
5.066371
4.546285
13.231460
13.519284
13.792252
13.969362
14.147017
14.297151
14.358260
14.623852
14.936598
15.229583
15.489523
15.733659
16.005891
16.319641
16.667194
16.925131
16.983727
17.012887
16.997352
16.974262
16.938688
16.918183
16.962308
17.035304
17.266307
10.719689
10.660615
10.570217
10.493293
10.363690
10.194011
9.986642
9.746068
9.339962
8.920960
8.474505
7.990235
7.501577
6.955353
6.702944
6.319622
6.156278
5.810320
5.558217
5.503291
5.560250
5.679787
5.775941
5.910813
6.097290
6.270592
6.443548
6.615309
6.808982
7.022650
5.887496
6.247571
6.492036
6.840891
7.123504
7.370290
8.266041
8.111743
7.930581
7.691396
7.404694
7.047045
6.625428
6.067481
5.340421
16.859522
16.924977
16.981387
17.029223
17.091999
16.838461
16.528898
16.208480
15.887027
15.556022
15.263895
15.056907
15.108382
15.175643
14.784430
14.358088
13.933120
13.563129
13.302565
13.209902
13.048527
12.775702
12.425489
15.424544
15.541956
15.632261
15.238167
14.828740
14.403901
13.971872
13.566380
13.126856
12.849772
12.644177
12.284313
11.934953
11.643751
11.366030
11.168048
11.234549
11.485246
11.790627
12.070764
12.582239
13.101463
13.608526
14.131867
14.658779
15.166976
15.642464
16.065653
16.423561
16.725831
16.720629
16.688112
16.619989
16.511229
16.350473
11.108867
11.005337
10.955238
10.804562
10.608128
10.385326
10.119169
9.819635
9.461348
9.078938
8.687470
8.261199
7.823587
7.339773
7.000793
6.711070
6.579005
6.262153
6.056744
5.459674
5.443426
5.517224
17.341992
17.302937
17.627817
17.774850
17.795014
17.712075
17.539131
17.357359
17.187339
17.052219
17.007630
16.994312
17.070838
17.120840
17.143309
17.108698
17.032670
16.907528
16.767302
16.453502
16.109106
15.726064
15.447723
15.272781
15.029990
14.759797
14.507616
14.237602
13.999699
13.776319
13.568032
13.528839
13.386936
13.199906
12.983187
12.743664
12.442871
12.134684
11.809488
11.504053
8.039564
8.291085
8.607978
9.029685
9.517231
10.030513
10.565979
11.097796
11.577184
11.963337
12.482026
12.637055
12.794287
12.952648
13.054458
13.149778
5.684880
5.865869
17.281294
17.285268
17.304944
17.322885
17.147299
16.939901
16.677649
16.392433
16.076108
15.751038
16.846970
17.311524
17.633310
17.822104
17.884977
17.841964
17.741696
17.598142
17.458225
17.337643
17.268599
17.194749
17.293544
17.354092
17.369202
17.333146
17.257509
17.137651
16.981580
16.829599
16.591541
16.300730
15.928599
15.580775
15.351523
15.055425
14.775467
14.490449
14.201971
13.889101
13.681342
13.480857
13.253145
13.006035
12.739355
12.496542
12.200392
11.881510
11.468901
11.342006
7.407573
7.580538
7.683802
7.741203
7.980734
8.181858
8.406570
8.530943
13.406538
13.636332
13.847773
14.052577
14.263974
14.478836
14.712177
15.091263
15.379754
15.615989
15.854024
16.104542
16.369302
16.622937
16.862532
17.039322
17.124888
17.184588
17.229165
17.261124
17.228601
17.190121
17.167298
17.225458
17.337786
17.463516
15.895681
15.993861
16.059135
15.688893
15.289277
14.871568
14.452097
14.009157
13.491549
13.430726
13.168586
12.960455
12.738295
12.434186
12.102743
11.783795
11.599548
11.311843
11.150698
11.313630
11.615583
11.785268
12.137626
12.693237
13.237830
13.760295
14.268247
14.780848
15.285427
15.760469
16.178397
16.505972
16.716386
16.895470
16.997402
17.041443
17.043146
17.008468
16.942405
7.568967
7.763181
7.884893
7.967892
8.031515
8.083609
8.193701
8.417284
8.243200
8.128395
8.068860
8.010799
7.969219
7.928342
7.896527
7.860887
7.829829
7.807830
7.791255
7.774348
7.765436
7.744143
7.714647
7.677677
7.591127
7.469354
7.323856
7.177626
7.036647
6.903008
6.703297
6.339832
6.259560
6.104533
5.859405
6.088979
6.249427
6.401238
6.564167
6.743370
6.954786
7.186784
7.285441
5.493839
8.152926
8.083332
7.947062
6.726620
6.138290
6.672345
7.029057
7.339666
7.612397
7.803262
7.535007
12.372102
12.283984
6.011253
6.145357
6.274364
6.414603
6.567330
6.753846
6.984017
7.218324
7.415855
7.427657
7.438021
7.480700
7.757481
7.983008
7.488868
7.781239
8.011364
8.229176
8.494386
8.823216
9.249762
9.715270
10.217651
10.727496
11.210330
11.658987
11.929904
12.142208
12.413374
12.559858
12.623706
12.648150
12.806832
12.998917
13.152769
13.290927
17.597248
17.639860
17.628979
17.295113
17.274019
17.288291
11.818823
12.160709
12.411492
12.651235
12.830619
12.873865
6.303452
6.663004
6.999159
7.335101
7.565536
7.741461
7.858364
7.987688
8.110162
8.226737
8.355027
8.458780
8.555995
8.656348
8.732003
8.784764
8.846161
8.899117
8.942311
9.003347
9.052171
9.092539
9.122648
9.150511
9.169822
9.186457
9.205222
9.218033
9.230241
9.250950
9.336676
9.815175
9.521010
9.147448
16.223921
16.332283
16.396584
16.403323
16.076729
15.717479
15.326616
14.919854
14.509872
14.122987
13.732689
13.451045
13.245144
13.025223
12.792408
12.514438
12.221183
11.919994
11.613986
11.496505
11.224878
11.162578
11.409385
11.725723
11.921342
12.361895
12.826914
13.365163
13.893610
14.411595
14.922899
15.427435
15.902235
16.352005
16.682466
16.918495
17.123897
17.254983
17.327482
17.357415
17.356236
17.335673
5.920943
5.981573
6.361079
6.510615
7.067487
7.194329
7.127163
7.446004
7.735346
6.247190
6.149528
6.062090
11.009001
10.739193
10.468312
10.141792
9.797462
9.492091
9.133318
8.775307
8.402514
8.007569
7.559951
7.179891
6.774281
6.579538
6.312392
5.964431
8.458195
8.864746
17.489055
17.442669
17.425221
17.334333
17.205901
17.010462
16.800064
16.534021
13.478836
13.643770
13.804857
14.049266
14.292939
14.530870
14.751706
14.993271
15.255816
15.493428
15.720809
15.924752
16.133783
16.357476
16.582196
16.781348
16.946699
17.022051
17.132052
17.227933
17.308130
17.376750
17.448150
17.408833
17.309712
17.496833
8.253141
8.451319
8.588421
8.676858
8.745591
8.789508
8.802004
8.810969
9.221423
9.742658
9.349080
9.027252
8.902388
8.849494
8.801073
8.756070
8.691820
8.642220
8.596106
8.552464
8.508485
8.482613
8.459476
8.446720
8.428238
8.405069
8.362776
8.298412
8.182560
8.031527
7.826867
7.643006
7.478965
7.314255
7.186469
7.669269
7.941081
8.169070
8.385042
8.625398
8.957866
9.369785
9.826255
10.298671
10.770703
11.271092
13.112585
13.317641
9.162944
9.071119
8.930720
8.697983
8.495210
8.249982
7.921321
7.620596
7.738374
8.074537
8.350941
8.608944
8.895604
8.989297
8.915209
8.857937
8.840652
8.971083
9.140728
9.277171
9.375063
9.443744
9.467302
9.422387
9.104364
9.313154
6.995605
17.578428
17.596431
17.639797
17.843829
17.935753
17.941650
17.875657
17.774359
17.654368
17.549492
17.500266
17.555916
17.562161
17.531112
17.443740
17.328565
17.184410
16.999327
16.821461
16.654956
16.428576
16.143776
15.717874
15.314870
14.997938
14.715147
14.432729
14.164163
13.944520
13.718950
13.485512
13.231382
12.970017
12.690516
12.466730
12.236627
11.949586
11.631058
11.235569
10.185138
10.655083
10.197920
9.760142
9.417211
9.475419
9.510363
9.519680
9.462625
9.396355
9.329761
9.267058
9.202489
9.152479
9.117500
9.096576
9.075693
9.057481
9.019561
8.971376
8.863329
8.767978
8.526069
8.280169
8.032946
7.835841
6.315179
16.631784
16.682180
16.678439
16.621056
16.360059
16.052756
15.706707
15.340155
14.949253
14.569031
14.216473
14.011902
13.721636
13.528334
13.302548
13.049280
12.773052
12.545581
12.284679
12.017712
11.743401
11.443998
11.384866
11.152259
11.204736
11.483408
11.806327
12.235906
12.603762
13.046975
13.528256
14.035640
14.541287
15.045677
15.532634
16.027066
16.574017
6.588717
6.911526
7.387041
7.710727
7.992515
8.199481
8.298093
8.444911
8.593354
8.755804
8.907771
9.046666
9.168455
9.272725
9.364759
9.438404
9.506269
9.566577
9.625459
9.689168
9.747215
9.791581
9.829991
9.858595
9.876683
9.894319
9.897549
9.897402
9.869175
9.796584
9.652919
10.155007
9.588294
9.738358
9.872971
9.972075
10.054021
10.136543
10.205316
10.279206
10.349566
10.408424
10.462839
10.512902
10.538799
10.559841
10.568086
10.570255
10.547912
10.492340
10.369585
10.981369
10.738784
10.235235
10.125929
9.955982
9.840122
9.706411
9.515265
9.292824
9.013148
8.695561
8.329085
8.088495
8.138228
8.434837
8.711663
8.962025
9.122491
9.433306
9.830490
9.740605
9.598197
9.565331
9.554730
9.545848
9.532061
9.618124
9.802827
9.958250
10.057601
10.132247
10.162804
17.478475
17.526539
17.451255
17.442832
17.517752
17.568200
13.430369
13.568960
13.700084
13.964804
14.232048
14.498069
14.751552
14.984576
15.195160
15.394288
15.597723
15.799959
15.952311
16.100454
16.301119
16.486967
16.682131
16.817633
16.900076
16.913898
17.038295
17.154701
17.259287
17.347855
17.423313
17.481960
8.121528
8.455321
8.979185
9.373901
9.805829
10.263144
10.720249
11.153610
11.566044
11.890546
12.109449
12.260334
12.569665
12.873475
13.142247
11.366566
11.091805
10.777344
10.449257
10.078328
9.671137
9.414395
9.146571
8.722208
8.412371
8.079281
7.699749
7.322643
6.808768
17.376307
16.883944
16.947165
16.907070
16.827576
16.733557
16.531979
16.281983
15.984250
15.656932
15.307405
14.936659
14.572851
14.251000
14.164156
14.022301
13.825794
13.571221
13.287802
12.979362
12.650207
12.517334
12.306738
12.057028
11.807449
11.560019
11.283494
11.254740
11.078872
11.224714
11.562418
11.893956
12.236990
12.910733
13.263702
13.699985
14.169654
14.652593
15.128286
15.588149
16.024678
16.430217
16.761667
16.964807
17.180838
17.361980
17.491914
17.575630
17.618429
17.637870
12.708632
12.605768
17.328962
17.244121
17.109226
17.842490
17.953716
17.986943
17.958050
17.883572
17.776965
17.685753
17.701482
17.728479
17.728423
17.677027
17.588179
17.459055
17.315720
17.143184
16.943900
16.726938
16.615439
16.461526
16.268564
16.051471
15.767722
15.462657
15.177142
14.882835
14.615068
14.361327
14.162836
13.940876
13.696940
13.434512
13.175837
12.891629
12.588651
12.393888
12.184458
11.964587
11.682284
10.000297
10.192598
10.195788
10.153264
10.076149
9.992407
9.903177
9.826241
9.764420
9.714386
9.684042
9.670440
9.650686
9.605659
9.534108
9.470305
9.416795
8.964964
8.623985
8.347157
10.736731
10.614033
10.470619
10.291789
10.074940
9.795504
9.476931
9.134663
8.794027
8.592678
8.549224
8.783868
9.117851
9.361450
9.784531
10.223773
10.268171
10.119283
9.933404
10.029262
10.113860
10.172258
10.215639
10.164235
10.468527
10.616113
10.733528
10.785559
10.824546
10.894217
11.125497
11.489334
11.077727
10.585876
13.295045
13.417073
13.525154
13.805667
14.093923
14.385860
14.673470
14.947575
15.178213
15.360949
15.470703
15.650014
15.932191
16.172284
16.381379
16.547415
16.682327
16.756763
16.772980
16.759385
16.858149
16.975945
17.081986
17.307859
17.173702
11.396166
11.083145
10.720134
10.330725
9.890316
9.417526
9.232209
9.035603
8.822030
8.636708
17.820940
17.943147
17.995249
17.997277
17.929003
17.833106
17.862223
17.848929
17.777094
17.683688
17.554689
17.395731
17.208126
17.011328
16.803393
16.552175
16.492306
16.379213
16.256461
16.106736
15.990900
15.806355
15.564357
15.278929
15.002483
14.711862
14.483638
14.355746
14.144883
13.885723
13.627299
13.352128
13.051240
12.736609
12.389635
12.284008
12.104798
11.887960
11.654932
8.550440
8.867276
9.239729
9.681401
10.143480
10.578528
10.974701
11.343510
11.621309
11.846109
11.944266
11.992101
12.346711
12.681902
13.006116
16.601851
16.403477
16.153690
15.870583
15.554840
15.212302
14.854448
14.490583
14.350684
14.142745
13.860169
13.496419
13.132645
12.754950
12.376629
12.322388
11.832730
11.597606
11.387281
11.180105
11.107725
10.971063
11.234059
11.642527
11.975333
12.218075
13.023386
13.084196
13.140939
13.435009
13.835989
14.289924
14.755573
15.209848
15.629303
15.987903
16.302248
16.579619
16.812542
17.001141
17.204911
17.400491
17.566329
17.685874
17.766397
10.426644
10.616207
10.726551
10.798635
10.919099
11.073410
11.275610
11.377576
11.427862
11.432074
11.440980
11.459469
11.813091
12.257421
11.948380
11.543395
11.000205
10.086082
10.272470
10.427168
10.546745
10.643354
10.727014
10.817118
10.893380
10.970096
11.044485
11.115182
11.164537
11.196429
11.215907
11.217112
11.216675
11.185265
11.118143
13.093366
13.296555
13.260534
13.543896
13.850441
14.166136
14.490728
14.806208
15.097205
15.371445
15.560034
16.033628
16.224325
16.396029
16.525227
16.595435
16.619839
10.006364
10.418522
10.749392
11.078397
11.627113
11.637338
11.633979
12.014732
12.366236
12.725117
11.330268
10.977681
10.560465
17.906643
17.983826
17.981946
17.954042
9.558875
10.122803
10.587190
10.706203
10.815288
13.479287
13.921831
14.397252
14.871933
15.323325
15.696094
15.950131
16.144611
16.391063
16.653758
16.936843
16.978034
17.167365
17.365348
17.542689
17.707944
17.831210
10.773233
10.968939
11.096542
11.192265
11.292325
11.391562
11.478903
11.565246
11.656297
11.728097
11.793793
11.822654
11.833202
11.848026
11.835105
11.806576
11.731210
11.632515
11.495265
11.374295
11.225010
11.045719
10.830980
10.576303
10.271825
9.908482
9.523882
9.220899
9.034776
8.973066
9.124026
10.900378
10.816235
10.727667
10.625547
10.513003
10.410355
10.322903
10.269833
10.247931
10.232766
10.216618
10.155531
10.034930
9.969951
15.911744
15.657265
15.377430
15.055714
14.682231
11.104838
11.264886
11.389215
11.519544
11.702508
11.874670
12.026174
12.039578
12.007755
11.939552
12.964221
12.778457
12.420173
12.061202
11.762901
11.566042
11.447948
11.341188
11.219428
11.072312
10.943389
10.836175
10.777329
10.754297
10.748984
10.752739
10.768371
10.462318
10.283661
12.979346
12.866787
13.190927
13.511887
13.850874
14.201039
14.536808
14.875107
15.208292
15.577825
15.800747
14.343936
14.054860
13.783396
13.528424
13.231145
12.888428
12.498702
12.088324
12.022590
12.036841
11.824059
11.573349
17.916670
17.851905
17.723140
17.596660
17.425982
17.252733
17.052535
16.829469
16.585781
16.315644
16.276654
16.228245
16.116026
16.023443
11.281120
11.223575
11.216315
11.618435
11.982570
12.325498
12.654567
15.858238
16.067101
16.229612
16.346233
16.417161
16.424881
16.378521
16.219481
15.998955
15.703449
15.393381
15.060162
14.702086
11.225937
11.540295
11.819750
11.929700
12.031827
12.125894
12.235710
12.317989
12.389344
12.418336
12.427432
12.437230
12.438677
12.386251
12.334891
12.246218
12.115947
11.967057
11.782977
11.571412
11.323070
11.036678
10.707873
10.341713
9.953500
9.615868
9.361921
9.287925
9.421816
9.658206
10.109415
10.516585
10.919852
11.003656
11.146758
11.354726
11.584808
11.760139
11.895937
12.036840
12.227533
12.464065
12.747693
12.637614
12.544882
12.445836
17.921366
17.951512
13.491441
13.982178
14.508555
15.037561
15.491332
15.875154
16.106284
16.391868
16.801022
17.100512
17.250727
17.463643
17.636599
17.797566
14.487988
14.159732
13.662571
13.251837
12.815543
12.379177
11.995768
12.010344
12.017746
11.354378
11.265762
11.063956
10.963845
10.817532
11.197019
11.755459
12.142061
12.544960
12.363694
12.693837
13.055734
13.430086
13.789600
14.151137
14.503042
14.864651
15.192525
15.470702
15.699258
15.886496
16.036437
16.156431
16.221848
16.238563
16.178648
16.032966
15.793476
15.448477
15.166676
14.845239
15.757025
15.471992
15.158895
14.806296
14.458970
14.134940
13.885146
13.704095
13.402657
13.044822
12.637763
12.199111
11.720763
11.615864
13.061896
13.543287
13.503573
13.371514
12.860412
12.518009
12.313980
12.163461
12.029373
11.911612
11.787554
11.585231
11.406697
11.291863
11.231680
12.320186
12.430704
12.539963
12.664578
12.764123
12.878788
12.943240
12.983630
12.998743
12.989526
12.983525
12.954983
12.894829
12.808665
12.676691
12.501486
12.289161
12.044764
11.761457
11.439633
11.089111
10.709127
10.339958
10.008965
9.737135
9.571548
9.631361
9.796172
10.142563
10.485319
10.884869
11.264827
11.306156
11.363530
11.533340
11.766344
12.013152
12.203678
12.338651
12.448653
12.650714
12.902321
13.229964
13.130016
13.321502
13.603038
17.700623
17.557893
17.414341
17.215321
17.015514
16.797424
16.575004
16.323751
16.066205
16.025440
15.997542
15.943947
15.851456
11.230303
11.613288
11.933955
12.242846
13.484778
15.696597
15.879215
16.677914
16.946477
17.160057
17.302701
17.440564
17.532064
17.666653
17.825166
12.782110
12.907359
13.021107
13.145916
13.286746
13.403026
13.486076
13.529769
13.506277
13.508732
13.506711
13.475492
13.425130
13.331179
13.189464
12.987773
12.741869
12.461149
12.140133
11.788025
11.410737
11.031033
10.675740
10.367327
10.073418
9.823156
9.841084
9.904340
10.100789
10.396273
10.850990
11.226462
11.617428
12.092803
12.402210
12.614293
12.729398
12.724726
12.967661
13.217051
13.502070
13.852662
14.209690
13.985251
13.712320
13.470608
15.559897
15.223963
14.865822
14.493115
14.036706
13.621821
13.203873
11.021927
10.859226
10.666034
10.819466
11.983413
12.397833
12.886272
12.460348
11.525398
11.147631
12.071945
11.807761
12.036205
13.320846
13.647468
14.023218
14.423885
14.824935
15.156936
15.381916
15.523314
15.689497
15.838643
15.944383
16.023540
16.089181
15.984033
15.838510
15.638514
15.352588
14.864455
14.582280
15.025939
15.015880
17.579511
17.466580
17.303200
17.134402
16.933477
16.750404
16.526533
16.332051
16.092083
15.816792
15.742031
15.724424
15.670770
15.629033
11.640708
14.063470
14.025731
14.011799
13.143200
12.815247
12.774254
12.678112
12.558090
12.456000
12.396469
13.597638
14.096395
14.015152
14.654365
15.219353
10.336117
10.481939
11.380956
11.739015
12.155602
12.574173
13.025333
13.510120
13.991963
14.429881
15.423927
15.011995
14.741190
13.348421
13.456519
13.586626
13.731579
13.896059
14.015151
14.027046
13.973345
13.985277
14.003654
13.988662
13.928884
13.825837
13.666180
13.425955
13.140733
12.819535
12.448404
12.062842
11.673104
11.309564
10.988266
10.701274
10.423517
10.153611
15.450804
15.597597
15.717970
15.818369
15.687084
15.487807
15.228994
14.907923
14.677428
14.554138
14.345689
14.057299
13.711010
13.324449
12.818557
11.939504
11.605733
11.635000
14.357732
14.523288
14.480296
14.526086
14.628483
14.197388
13.209053
13.179396
13.032742
12.921160
12.948545
13.232850
14.311140
14.971031
14.845725
14.979912
15.194211
14.748712
15.221649
15.368974
15.463512
15.531741
15.527224
15.352233
15.076553
16.985178
16.812362
16.614048
16.294336
15.896994
15.574487
15.478018
15.413227
15.336863
15.323559
15.276475
15.069163
15.122298
15.192788
15.268034
14.884221
14.843334
14.925061
14.550145
14.161654
13.755487
13.852776
14.139467
14.326148
14.404429
14.443023
14.457061
14.400347
14.293551
14.110186
13.812201
13.480983
13.135471
12.659135
12.228893
11.855114
11.537454
11.291917
11.050152
10.786306
10.014615
10.891910
11.108590
11.573685
12.316440
13.183631
13.473754
13.834138
13.991153
14.318011
14.665760
14.555456
11.569292
11.887159
12.261727
12.672606
13.097938
13.534785
13.959661
14.376100
14.748344
15.121524
15.522997
11.689401
11.944560
12.296085
12.700821
13.132880
13.521407
13.899803
14.298912
14.711811
15.128282
15.509336
16.535694
16.794659
16.226189
15.885274
14.351169
14.274063
14.130643
13.985975
13.759141
13.435047
13.046853
13.712301
13.747358
13.414683
16.614827
16.430870
16.258807
16.017538
15.685054
15.291492
15.190574
15.065895
14.976034
14.844204
14.921789
14.556733
14.217650
13.871087
13.569219
13.725526
13.992916
15.451780
15.759108
16.079318
16.374178
16.176127
15.326123
14.889725
14.869540
14.775402
14.574363
14.506875
14.361361
14.433655
14.830242
14.743621
14.131121
13.761511
13.476743
15.804108
14.594223
15.220934
15.124032
15.095041
15.559494
15.380914
5.076017
7.392531
7.541092
16.499279
16.079968
15.522448
15.457497
10.302672
9.917356
4.398634
4.052274
9.270984
17.358806
17.395394
17.575139
17.524053
17.538843
17.513905
8.322488
8.659449
12.339232
12.115122
11.409233
11.623354
11.892324
11.627972
11.803917
14.746755
14.591258
16.437286
16.140114
14.054306
13.704053
15.928965
16.332777
13.947702
14.209752
15.595726
13.676119
13.888377
13.902653
0.023716
0.023716
0.070176
0.070176
0.114780
0.114780
0.157521
0.157521
0.198279
0.198279
0.236838
0.236838
0.236838
0.272944
0.272944
0.306299
0.306299
0.336585
0.336585
0.336585
0.363492
0.363492
0.386762
0.386762
0.406194
0.406194
0.406194
0.421502
0.421502
0.433229
0.433229
0.443099
0.443099
0.453062
0.453062
0.453062
0.464861
0.464861
0.479875
0.479875
0.499019
0.499019
0.522645
0.522645
0.522645
0.550604
0.550604
0.582354
0.582354
0.582354
0.617058
0.617058
0.653766
0.653766
0.691580
0.691580
0.691580
0.729685
0.729685
0.767391
0.767391
0.804338
0.804338
0.840481
0.858433
4.505452
4.710953
4.784887
4.769526
4.757183
4.719360
4.631618
4.514511
4.397351
4.607876
4.752289
4.888349
5.204402
5.581933
6.016938
6.490168
6.937115
7.514697
7.977112
8.187372
8.336236
8.241614
8.450730
8.721095
9.150165
9.150536
8.952978
9.028181
9.220376
9.593689
9.726434
9.951314
9.874818
9.576541
9.200460
8.718176
8.527265
8.512243
8.409692
8.406003
8.515392
8.715854
9.000988
9.248588
9.425438
9.614308
9.788842
9.923635
10.080689
10.205192
10.441297
10.591108
10.890137
11.219837
11.551647
11.862043
12.071847
11.903663
12.013827
11.811845
11.569963
11.293496
11.124681
11.058467
11.078277
11.112419
10.926131
10.821269
10.338308
9.956942
9.568603
9.439443
9.027787
8.782653
8.424190
8.031564
7.785946
7.358234
6.914483
6.417603
6.016067
5.913138
5.638558
5.354685
5.094192
4.861461
4.402365
4.067444
3.760758
3.453253
3.843627
3.968459
3.652486
3.466094
3.676762
3.710953
3.415334
3.503686
3.986792
3.798106
3.979412
4.272595
4.559038
4.849670
5.127950
5.361206
5.632537
6.107354
6.464831
6.775215
7.154348
7.466998
7.791061
8.085103
8.469710
9.045156
9.330017
9.543889
9.849309
10.199597
10.506421
10.813661
11.062500
11.144185
11.197716
11.211989
11.314757
11.458765
11.646384
11.873149
11.979461
12.003470
11.960247
11.784184
11.476144
11.194346
10.895107
10.639167
10.457325
10.267421
10.147387
10.003959
9.957815
9.791172
9.589273
9.386776
9.167548
8.919929
8.729225
8.605853
8.583192
8.617849
8.698754
8.625576
8.557466
0.537196
0.601468
0.890147
1.147562
1.387805
1.616915
1.843269
2.147635
2.416658
2.617560
2.875972
3.144064
3.362356
3.526670
3.601618
3.687027
3.633169
3.658315
4.006582
4.190120
3.814685
4.038199
4.169532
4.269689
4.324290
4.337994
4.294425
4.180990
4.002680
3.758239
3.455032
3.075358
2.585511
1.817725
1.113063
0.638744
0.717117
0.872846
0.896960
0.887336
0.878558
0.904618
0.947376
1.016881
0.974742
0.899670
0.920054
0.961109
1.025019
1.002752
1.003410
1.004177
1.000082
0.945851
0.941898
0.923182
0.941760
0.950448
0.956005
0.954958
0.966441
0.978227
0.997128
1.048898
1.214279
0.986592
0.872663
0.827996
0.794709
0.778441
0.760518
0.733440
0.710209
0.692195
0.678622
0.671736
0.663329
0.639693
0.630682
0.608764
0.597326
0.596039
0.554830
0.577393
0.601044
0.573778
0.544152
0.487774
0.439396
0.394047
0.355314
0.337698
0.331983
0.324644
0.327823
0.335987
0.361330
0.350182
0.318971
8.622337
8.939049
9.274022
9.472922
9.598208
9.354046
9.017327
8.891335
8.805218
8.744351
8.760101
8.646321
8.507400
8.363522
8.220355
7.913381
7.971794
7.798992
7.418609
6.939172
6.455943
5.977892
5.507748
5.073259
4.849321
4.684809
4.497457
4.326762
4.330592
4.353543
4.394177
4.415024
4.346787
4.337565
4.261018
3.311959
3.524079
3.881077
3.977425
4.621586
4.817306
5.019417
5.194518
5.417077
5.499182
5.764231
4.614000
4.694901
5.826345
6.072510
6.378122
6.717459
7.043907
7.247219
7.440600
7.665112
7.929428
8.590051
9.200990
9.348396
9.691199
9.986166
10.285334
10.540172
10.830114
11.135858
11.278064
11.301899
11.558294
11.686120
11.779343
11.922196
11.967671
11.907037
11.686161
11.407828
11.089611
10.885595
10.675645
10.482836
10.352073
10.179160
9.975538
9.759168
9.541875
9.319711
9.095087
8.919151
8.811448
8.748846
8.755956
8.816691
8.874067
8.761945
8.650447
8.560653
8.511597
8.642939
9.027348
9.149794
1.373731
1.581555
1.525494
1.538096
1.493414
1.265484
1.594989
1.498306
1.458972
1.506102
1.577411
1.657738
1.718670
1.726851
1.625430
1.551171
1.513619
1.519164
1.552213
1.567252
1.591546
1.602181
1.623117
1.646321
1.674796
1.783974
1.988651
1.621146
1.471538
1.407165
1.371384
1.343046
1.308938
1.279736
1.256997
1.233873
1.237588
1.241776
1.246577
1.217946
1.175305
1.150820
1.119733
1.089190
1.080401
1.054626
1.030979
1.008403
0.933271
0.843713
0.751044
0.665211
0.580850
0.499065
0.422375
0.350988
0.287705
0.238686
0.185950
0.208359
0.291307
1.933997
2.406569
8.838962
8.658310
8.471845
8.390339
8.304816
8.198112
8.120865
8.155160
8.055806
7.860331
7.839150
7.719161
7.392139
6.942116
6.496615
6.016894
5.520429
5.083772
4.673208
4.490677
4.341354
4.282991
4.147227
4.074451
4.026356
3.959119
3.937587
3.884554
3.823069
8.261358
8.207198
8.103197
8.029798
7.993629
8.003221
7.941751
7.769452
7.784830
7.684661
7.503709
7.077075
6.626153
6.131830
5.635076
5.110600
4.650633
4.436364
4.362680
4.208003
4.034758
3.868932
3.721804
3.581112
3.511342
3.540126
3.475049
3.713871
3.843608
3.464104
3.642248
3.734691
3.821860
3.894046
3.888327
3.810111
3.660136
3.444198
3.158681
2.791683
2.328446
1.665870
0.486379
0.748746
1.027359
1.232324
1.536082
1.696069
2.004609
2.239542
2.437716
2.718537
2.961644
3.155409
3.248356
3.402242
3.249004
3.285872
5.581415
5.743738
6.002483
6.330094
6.596119
6.955482
7.185806
7.352921
7.254509
7.537326
7.936409
8.297157
9.338793
9.627295
9.675913
9.979486
10.247341
10.657545
10.735221
11.021337
11.126540
11.471057
11.653495
11.856358
11.778559
11.571982
11.300548
11.062510
10.824753
10.644614
10.514637
10.450540
10.331823
10.143017
9.925946
9.695335
9.468041
9.236472
9.075440
8.973051
8.912396
8.890062
8.942032
8.973380
9.007322
8.905248
8.780899
8.651244
8.512650
8.356725
8.375294
9.056526
8.743108
0.407221
0.588150
0.924927
1.218399
1.373956
1.663547
1.837632
2.113475
2.357285
2.507425
2.754374
2.944617
3.111711
2.954388
3.058630
3.122466
3.310060
3.495768
3.955311
4.087618
4.765900
5.459521
5.339870
5.251896
5.259056
5.466890
5.429068
2.156226
2.046454
2.038861
1.982498
1.695705
1.457301
1.879341
1.835411
1.922248
2.025901
2.164187
2.280929
2.443414
2.208028
2.092358
2.059398
2.069170
2.102026
2.151713
2.205086
2.242351
2.278096
2.310395
2.339818
2.435050
2.576128
2.914741
3.308544
2.858167
2.435175
2.142349
2.038000
2.006065
1.982088
1.947372
1.907664
1.868718
1.838473
1.820354
1.825662
1.855189
1.884186
1.829148
1.766049
1.723683
1.682843
1.655273
1.625193
1.572158
1.510543
1.414435
1.348166
1.260266
1.164905
1.062326
0.968802
0.867765
0.736962
0.652465
0.598191
8.295681
8.226949
8.171266
8.092313
8.103374
8.037973
7.986416
7.945758
7.872563
7.755618
7.623860
7.271364
6.816785
6.315993
5.845833
5.437045
4.549598
4.341120
4.323301
4.200950
3.972165
3.748047
3.549192
3.336602
3.186852
3.117615
3.125723
3.281177
3.341703
3.377023
3.108567
3.205805
3.311734
3.427328
3.470585
3.435395
3.289927
3.078987
2.857021
2.573115
4.861611
5.146123
7.288355
7.465750
7.661972
8.064287
8.556925
8.912318
9.129208
9.328948
9.586695
9.710156
9.956874
10.145325
10.458976
10.657967
10.883402
10.832103
11.251183
11.461273
11.762835
7.137005
7.767293
8.089020
8.416798
8.794728
9.085696
9.256551
9.399501
9.585054
9.722923
9.921167
10.099286
10.338900
10.552750
10.764967
10.853302
11.009754
11.177453
11.459019
11.597682
11.685093
11.613091
11.415555
11.193892
10.984296
10.789022
10.612852
10.493914
10.310089
10.095740
9.854219
9.606301
9.375182
9.191229
9.101973
9.038763
8.986702
9.014338
9.058421
9.089779
9.118638
9.028738
8.915634
8.780581
8.627064
8.467072
7.539161
7.381369
2.385804
2.118309
1.781220
1.731964
2.068462
2.147285
2.330739
2.491247
2.663680
2.845953
2.691274
2.579035
2.543170
2.543203
2.584318
2.707472
2.800969
2.861690
2.914319
2.956424
2.997157
3.029439
2.983760
3.351666
3.748622
4.136884
3.713583
3.246325
2.827159
2.510803
2.550462
2.595608
2.598184
2.559373
2.512859
2.463904
2.419381
2.397536
2.404836
2.457706
2.647100
2.448830
2.344667
2.280846
2.231275
2.192848
2.130265
2.053218
1.927893
1.782258
1.635908
1.591353
1.531539
1.427097
1.332653
1.206160
1.047975
0.944211
0.925153
5.418038
6.189056
6.366669
6.792097
1.172384
1.462875
1.683574
1.960502
2.192469
2.389056
2.595133
2.700248
2.874567
2.620730
2.808359
2.864576
3.033981
3.339193
3.603535
4.034426
4.265185
4.909426
5.521363
6.061168
6.000376
5.912880
5.764911
5.645581
5.935077
8.415094
8.358323
8.291171
8.189482
8.128221
8.029078
7.913090
7.771770
7.470963
7.023782
6.512122
6.051721
5.689007
5.428349
5.178112
4.924486
4.722839
4.207519
4.126653
3.958036
3.703913
3.502544
3.241471
3.046805
2.919188
2.899734
3.000116
2.913104
2.928269
2.834776
2.805179
2.853485
2.960494
3.055949
2.952869
2.863793
2.555769
2.493984
2.885758
3.112504
2.345921
1.941222
1.852724
1.983874
2.221782
2.477425
2.687416
2.876563
3.001274
3.496793
3.374842
3.190680
3.035528
2.978747
2.968564
2.880414
3.041115
3.234927
3.360184
3.455228
3.523146
3.584024
3.647863
3.724999
4.169819
4.554966
4.934684
4.531608
4.091443
3.595513
3.054149
2.713436
2.603841
2.541678
2.406344
2.360083
2.445731
2.541701
2.518392
9.113184
9.138811
9.166363
9.191226
9.228134
9.153869
9.051132
8.921174
8.767900
8.597599
1.240772
1.487071
1.783882
2.036327
2.269766
2.468501
2.586588
2.732060
2.306352
2.522770
2.645358
2.774135
3.051740
3.396346
3.684659
4.135786
4.386021
4.995445
5.553174
6.025330
6.410000
6.473879
6.469864
7.094816
7.225990
7.321518
7.471588
7.646122
7.864176
8.097183
8.367992
8.639347
8.928641
9.175553
9.360285
9.495709
9.643376
9.750753
9.882727
10.034004
10.232243
10.780456
10.927503
11.035575
11.201777
11.340354
11.454434
11.477004
11.407804
11.233987
11.027382
10.842270
10.661304
3.213635
3.222838
3.178008
3.120535
3.055591
2.993294
2.953813
2.948267
3.017645
3.184955
3.021459
2.873845
2.800784
2.750985
2.703139
2.613132
2.506425
2.346188
2.108295
1.868680
1.768417
1.818190
1.763510
1.627222
1.524353
1.253816
10.477876
10.261198
10.027273
9.790838
9.552601
9.344887
9.251387
9.160351
9.191125
9.215568
9.240621
9.258887
9.289547
9.317783
9.262233
9.176337
9.064829
8.919546
8.737215
8.547294
2.093378
2.322370
2.476758
2.622750
2.199304
2.367913
2.559893
2.721940
2.834133
3.080566
3.414388
3.742842
4.186431
4.468818
5.042549
5.530713
5.953514
6.292570
6.548211
6.709081
6.830464
8.489282
8.400819
8.321084
8.217943
8.091500
7.925678
7.626743
7.210246
6.665097
6.178691
5.865759
5.713681
5.489715
5.209675
4.917423
4.642410
4.446460
2.063261
1.971260
2.024327
2.256393
2.510979
2.811804
3.022025
2.130225
2.280803
2.483812
2.722483
2.985930
3.245144
3.229020
3.494580
3.725313
3.713397
3.589105
3.403823
3.243388
3.283607
3.326115
3.168865
3.453244
3.691642
3.906818
4.016858
4.099046
4.168708
4.246490
4.386760
4.651607
4.960068
5.323957
5.705553
5.333763
4.953450
4.514042
3.990183
6.100917
5.839227
5.509969
5.178391
4.915515
4.618644
4.385053
4.261097
4.257392
4.270661
3.229144
3.545539
4.145702
4.019867
3.859905
3.724315
3.556671
3.339846
3.075596
2.873171
3.883245
3.804146
3.723675
3.639235
3.561049
3.490322
3.454402
3.464932
3.489974
3.978251
3.694173
3.499390
3.368817
3.277459
3.241965
3.171527
3.063691
2.916930
2.748630
2.436042
2.104943
1.884159
2.054558
2.024089
1.922591
1.841044
10.654629
10.438477
10.203795
9.971464
9.746167
9.542946
9.420605
9.338532
9.297472
9.300192
9.305317
9.316647
9.339203
9.343555
9.306732
9.315115
9.287485
9.192178
9.062851
8.901414
8.699543
6.708075
6.222111
5.806199
5.409356
5.055205
4.870764
4.616127
4.231404
4.187383
4.111971
3.988495
3.733502
3.486092
3.268970
2.957324
2.705902
2.469775
2.299926
2.192055
2.069408
8.108153
8.482770
8.723127
8.977609
9.205922
9.424830
9.594112
9.735213
9.830835
9.919419
9.961740
10.808643
10.924096
11.058165
11.168745
11.276314
11.290920
11.281493
11.192632
11.023180
10.834741
3.788621
4.183697
2.118696
2.106144
2.304622
2.565680
2.811132
2.986646
3.811299
4.172089
4.522672
4.521108
6.921888
7.049717
7.144414
7.237763
7.433774
7.590470
3.627015
3.528544
3.445600
3.776663
4.093869
4.486792
4.572022
4.638515
4.702407
4.794901
4.919932
5.111613
5.325216
5.650334
6.031313
6.419070
6.100327
5.761563
5.392879
5.029435
4.714754
4.535841
4.413943
4.314905
4.207699
4.114741
4.014200
3.943116
3.897892
3.741511
3.871970
3.704455
4.067852
4.368075
4.700299
5.097986
5.124731
5.204117
5.271211
3.915230
3.992245
4.322387
4.596126
4.788434
3.951039
4.168352
4.313458
4.356005
4.638882
4.078276
3.883211
3.801939
3.746071
3.692008
3.607792
3.488594
3.311002
3.086840
2.800378
2.351678
2.023439
2.020530
2.276158
5.019220
5.472673
5.840594
6.138014
6.353523
6.514083
6.731038
8.633981
8.543946
8.433243
8.296574
8.061055
7.766934
7.343303
3.839341
4.070685
2.604407
2.394728
2.246821
11.153169
11.094052
10.984302
10.807605
10.621333
3.605275
10.398978
10.169794
9.945439
9.743297
9.613957
9.502481
9.436979
9.396689
9.384666
9.376227
9.374033
9.347212
9.294688
9.200459
9.230158
9.251513
9.235719
9.173714
9.047372
8.852798
6.850706
6.936791
7.015575
7.081928
7.369717
7.721531
7.892742
7.766881
3.382993
8.094411
8.263604
8.491615
8.710825
8.970288
9.170228
9.410702
9.614688
9.798655
9.933617
10.033427
10.084682
5.532104
5.583510
5.910361
6.295398
6.689436
7.080309
6.806903
6.496095
6.182375
5.844884
5.517464
5.245219
5.123090
5.007427
4.888038
4.771762
4.651876
4.524574
4.426573
4.354940
4.321305
3.814380
5.396195
5.801010
6.023737
6.504593
6.918827
7.308636
7.662818
7.440908
7.170851
6.890463
6.580621
6.261688
5.933628
5.609108
5.645800
5.578898
5.456775
5.321240
5.174975
5.022675
4.890444
4.811738
4.804797
4.924645
5.173050
4.938350
4.669179
4.139280
4.113304
4.026764
3.880889
3.675996
3.403975
3.085320
2.633871
2.215972
1.996231
2.416180
8.005512
8.189414
8.433323
8.677807
8.897731
9.078491
9.349882
9.590672
9.802474
9.966351
10.124717
10.221410
10.279522
10.278984
10.110792
7.662974
7.865120
8.088271
8.372324
8.599638
8.795236
8.957824
9.241009
9.486319
9.720658
9.925132
10.104525
10.259748
10.400694
10.456464
10.624092
10.760471
10.895234
11.014125
4.963442
5.361195
5.687486
5.942663
6.135684
6.279915
6.384936
6.626041
10.586635
10.366761
10.142737
9.938894
9.782755
9.664625
9.576678
9.503038
9.461547
9.446383
9.411307
9.360871
9.276971
9.173953
9.045649
9.071245
9.102742
9.119031
9.127566
9.077299
8.975664
8.784858
8.657759
8.457065
8.195071
7.885992
7.496644
7.019886
6.516718
6.023910
5.539476
10.917327
10.780321
2.201221
2.514366
2.846061
3.279864
6.271325
6.163647
6.023606
5.857946
5.680351
5.490800
5.332958
5.215639
5.161890
5.142540
5.351825
5.620247
5.456562
5.258667
4.556338
4.156022
2.507586
2.817060
3.163628
3.525568
3.869304
4.186406
4.536730
4.863457
5.207036
5.485575
5.714004
5.883347
6.011648
6.109545
6.193448
6.462934
6.704831
6.764284
6.786401
6.797405
7.141475
7.508292
10.558811
10.327098
10.119978
9.943612
9.812031
9.679706
9.584508
9.515436
9.510753
9.467301
9.382669
9.263858
9.132641
9.029757
8.882078
8.875516
8.896936
8.919539
8.894783
8.937514
8.916459
8.815589
5.533378
5.587510
5.646061
5.715407
4.509804
4.422175
4.256130
4.007015
3.665786
3.296035
2.887439
10.655074
10.725607
8.589813
8.324971
7.992809
7.598992
7.168933
6.695340
6.131193
5.580717
5.085087
5.101794
3.052762
3.458748
3.759669
4.011806
4.224511
4.480057
4.749478
4.997948
5.241332
5.447355
5.591781
5.704460
5.810710
5.914644
6.033225
6.321630
6.505246
5.897247
5.986873
6.059099
6.087987
6.089433
6.355821
6.711103
7.119614
7.513946
7.877725
8.175376
7.966473
7.750726
7.525346
7.247418
6.975438
6.673263
5.466425
5.761899
6.068061
4.984440
4.896097
4.794355
4.606599
4.361071
3.899110
10.468281
10.260763
10.085168
9.930364
9.764401
9.600510
9.537518
9.421255
9.252162
9.013979
8.691987
8.636577
8.644546
8.683740
8.701648
8.613012
8.698102
8.677553
6.811817
7.169506
7.665838
8.387401
8.069740
7.681259
7.274145
6.836108
6.378542
10.475459
4.073768
4.299782
5.262429
5.363341
5.464381
5.604931
5.756196
5.898717
6.156855
6.448258
6.456342
6.852976
7.266526
7.665530
8.118004
8.401728
8.216953
8.068042
7.867536
7.594372
7.356597
7.119380
6.877184
6.726405
6.572978
6.373410
6.158511
5.924956
5.724856
5.582077
8.626683
5.914465
6.207648
6.490307
6.405079
5.138886
4.560954
4.356376
8.032840
8.289087
8.494163
8.648319
8.783791
9.077102
9.358478
9.596213
9.819477
10.005626
10.179148
10.387324
10.316839
9.623800
9.458936
9.257369
8.995235
8.698163
8.422626
8.100732
7.718366
7.290085
6.875462
6.763397
7.084305
7.444064
7.750393
7.988576
8.182443
8.326253
8.445765
8.564525
8.886029
9.171784
9.432759
9.664355
9.865612
10.035979
10.185904
10.299473
6.063001
6.338190
6.588974
6.893848
7.217995
7.479935
7.704194
7.874699
7.984537
8.090254
8.202267
8.959831
9.230974
9.469378
10.001209
10.162782
9.846980
9.667716
8.647697
8.308529
8.377065
8.377916
8.246552
8.507880
8.381737
8.403980
8.356118
8.452058
7.918691
7.725600
7.536845
7.378597
7.236588
7.157821
6.846659
6.644929
6.311347
7.023152
7.428096
7.639528
7.632281
7.701868
7.803546
7.938520
8.056455
8.129309
7.210464
6.888039
7.246349
10.433705
10.638364
10.475699
10.641683
3.382252
2.210177
4.136197
4.060069
7.944850
8.260475
2.839980
3.127007
10.531019
6.517618
6.271809
5.004385
4.533385
6.536368
4.952559
4.731130
4.363744
4.163909
0.000000
0.386644
0.780645
1.180134
1.507406
1.791290
1.969373
2.047871
2.224020
0.000000
0.000000
0.317991
0.505740
0.599747
1.243972
1.859171
2.457488
3.354928
3.822684
0.000000
0.000000
1.202942
2.361314
3.179167
3.685508
3.979142
4.288929
4.658996
4.374185
0.000000
2.956716
4.183325
1.018302
5.779843
8.164280
8.076018
3.989846
7.644937
10.892087
12.949204
14.089530
14.342176
14.495749
14.625521
14.581535
0.688805
1.385007
2.073191
2.756965
3.441698
4.127239
4.814229
5.495929
5.673402
0.399035
0.801859
1.208798
1.616930
2.025286
2.435491
2.849055
3.265699
3.814966
1.913016
3.644633
4.505137
5.053386
4.838038
4.273574
3.630616
3.779188
6.190099
1.755495
2.500335
3.299160
3.443826
3.631499
3.386804
3.353308
3.910333
4.832172
13.860368
13.804400
14.007881
11.053164
10.769439
10.731646
12.882457
14.341594
13.854543
14.294258
13.251148
14.014328
11.082335
13.366757
14.685812
14.243500
14.685150
6.212020
6.407031
6.290585
6.495341
5.772504
5.612126
5.824418
6.054301
6.567722
5.967537
5.836084
5.792419
6.429461
6.510780
6.458023
6.357449
5.933190
6.044070
6.172434
6.285371
2.898310
3.202302
3.217664
3.201850
3.269054
3.327521
3.432708
3.267040
3.743128
3.600423
3.667390
3.362303
3.445909
3.837852
3.837026
3.972977
4.041177
5.591606
6.372687
5.668755
5.551462
4.719963
5.595209
5.991153
5.067329
5.255346
5.558409
5.200911
6.055155
5.055858
4.873439
5.394322
5.905663
3.583751
4.564205
3.565092
5.276554
5.756993
4.383562
3.310156
4.928458
4.921273
3.737135
6.130438
5.646762
4.414723
3.897309
4.982453
4.192596
5.016479
4.945224
4.430813
3.912272
6.292749
6.030255
4.635475
4.326625
5.337594
4.469882
1.535890
2.896336
3.839804
4.415651
4.616693
4.417851
3.910833
3.444063
3.707751
1.181932
2.206141
2.967116
3.383808
3.455887
3.305341
3.281535
3.904804
4.963137
1.073673
2.133081
2.997398
3.507816
3.779384
4.062685
4.764892
6.245105
8.851778
1.322315
2.568483
3.678732
4.644923
5.520137
6.419411
7.489170
8.851159
10.044947
1.580650
3.095635
4.513704
5.813572
7.033666
8.220566
9.457198
10.809789
12.154829
2.009110
3.944239
5.739462
7.366472
8.825557
10.150929
11.398018
12.608400
13.994184
2.678014
5.414762
7.806911
9.433868
10.429569
10.723427
10.546665
10.685382
9.843988
0.536850
0.989907
1.272905
1.306971
1.095300
0.819608
1.178596
2.251058
3.732795
0.843919
1.572117
2.160429
2.551089
2.727161
2.757825
2.766345
2.902584
3.208158
1.838251
3.564347
4.985635
6.044089
6.733160
7.056775
7.078394
6.890179
7.238123
1.579820
3.855335
5.399558
6.268302
6.644625
6.794026
6.967865
7.417985
8.156887
1.401865
1.993990
2.672704
2.888071
2.786337
2.899913
3.537995
5.295172
7.427793
3.120846
5.929449
8.288388
9.988865
11.009483
11.503993
11.705246
11.742409
12.158021
1.443393
3.181274
4.891996
5.845533
7.025731
8.875419
10.777269
12.343884
11.330341
1.510559
3.013269
4.518500
6.027117
7.532536
9.040387
10.551289
12.059013
13.757626
0.713752
1.484045
2.309507
3.233775
4.290163
5.501554
6.884094
8.424501
10.240887
0.752322
1.505967
2.255332
3.006096
3.754113
4.502960
5.250115
6.000114
6.177496
0.707208
1.402484
2.100228
2.801749
3.516808
4.230426
4.944309
5.671496
6.944400
0.475368
0.948272
1.420791
1.895995
2.369133
2.839909
3.315721
3.787793
4.490778
2.919156
3.056529
3.220968
3.343612
3.223800
3.659246
3.611186
3.188281
4.407963
3.181373
3.366358
3.232775
4.179348
3.860624
3.120504
3.808417
3.993110
4.890469
5.127684
5.701523
4.832466
4.741647
4.925747
5.367442
5.937015
5.034672
4.832384
5.394393
5.968950
5.128135
5.299569
6.015741
6.140918
6.396919
5.537000
5.807499
6.066575
8.184443
8.615752
8.146408
8.025591
8.697226
8.931529
8.915200
8.487611
8.049872
7.762995
9.294798
7.535780
8.290850
8.685975
9.484160
7.506235
9.971521
8.081313
8.708332
9.816660
9.588233
11.065970
9.771372
10.345749
10.736052
10.180609
10.717904
9.976257
9.930406
10.063450
10.811652
11.819643
10.181615
9.849976
10.333291
11.340293
11.116677
10.388526
10.710652
10.982903
12.048126
11.771222
11.450216
11.982764
12.346828
11.986430
12.294572
12.085949
12.124143
12.605061
12.549161
12.852980
12.639596
12.382247
12.605752
12.650434
12.702702
13.708019
13.745413
13.760966
13.109555
13.966216
13.490556
13.798063
13.909865
14.030589
13.438358
14.122146
13.979991
13.361617
13.561606
14.168234
14.077626
14.039874
13.980608
14.055249
14.083130
14.081283
9.364713
10.190117
11.167315
8.154790
11.064905
9.657520
9.014822
10.302017
10.939532
10.847748
9.694077
4.118240
4.083902
3.851063
3.649013
3.822496
3.919305
3.862258
4.018271
3.399900
3.231201
2.821346
3.945869
3.134719
3.248769
3.483714
3.526632
3.552008
3.607868
3.559822
7.258256
5.986426
5.778886
6.216667
6.759399
5.500685
6.919113
6.748971
6.852421
7.008775
6.750562
5.461287
7.110372
5.817251
6.683137
6.599333
5.762680
6.273633
5.424869
9.011692
7.121820
8.806900
8.213003
9.077876
6.212178
6.319063
9.246822
7.608049
7.183204
9.228076
9.147673
8.445362
8.956221
8.250047
7.501395
7.623717
8.299065
8.431962
8.119359
8.175958
7.551837
8.530350
7.793841
7.213710
8.760792
8.773881
8.149359
7.874461
7.209775
7.720974
11.689891
11.581252
12.107609
12.240460
11.256792
11.168055
11.005222
11.984889
11.988472
12.568734
12.497830
11.038896
11.123513
11.978127
12.147033
10.997573
12.549676
11.412767
13.873327
14.662418
14.728944
14.355983
11.609440
11.907859
12.384429
13.003989
13.800013
11.935908
11.412191
13.568058
12.992211
14.159584
12.297607
12.102188
14.284875
14.340300
11.852649
12.849326
12.656667
14.003256
14.442186
12.531376
11.540155
13.477484
12.626379
11.750187
11.974047
14.422384
12.953341
13.915698
13.701892
13.592753
13.481773
13.924836
13.675119
13.524382
13.614806
13.492887
13.826267
13.716021
13.584192
10.376312
10.529424
9.670424
9.547621
10.500148
10.442933
9.773442
10.132949
9.912436
10.494926
10.353106
10.215855
6.520289
6.505257
5.887298
6.334368
7.302810
7.118493
7.114793
7.054568
6.415046
7.190760
7.048642
6.901466
6.732775
6.616501
6.407633
6.449907
6.449402
6.035336
6.693538
6.496569
6.428019
5.946607
6.599397
6.479668
7.060328
6.860341
6.622629
6.523433
6.616334
6.686493
4.090238
4.241286
3.952954
4.491122
4.420842
4.136593
4.073121
4.289020
4.063667
4.223094
4.130767
4.073460
0.982013
1.603954
2.099729
2.305875
2.289955
3.017789
4.748217
7.418022
0.854680
1.604221
2.194831
2.628676
3.109741
3.919465
5.248338
7.473297
2.456787
4.718852
6.564157
7.890594
8.706952
9.086592
9.137457
8.518192
1.918798
3.572717
4.838630
5.550021
5.853804
5.909766
5.975608
5.186513
2.301322
4.319653
5.993381
7.176656
7.859234
8.110498
8.085100
7.912051
2.483568
4.564490
6.127169
7.228285
7.615823
7.418068
6.548797
4.638748
1.092544
2.114159
3.018527
3.774300
4.371053
4.804657
5.101635
5.460042
1.166518
2.201103
3.001773
3.529198
3.887558
4.311019
5.093505
6.752744
0.225145
0.581260
1.140696
1.921735
3.029771
4.497737
6.307743
9.030638
1.318359
2.748730
3.593756
4.097329
4.214136
4.257183
5.219557
6.754095
0.532053
1.043821
1.446672
1.708311
1.871215
2.097632
2.617667
2.940809
0.193115
0.429186
0.633305
0.753940
1.186495
2.090986
3.303816
3.815450
0.533317
0.822196
0.907505
0.876288
0.929338
1.778230
3.508410
5.494968
2.180662
3.990342
5.262415
6.640291
8.473804
10.300947
12.111197
15.664342
0.689772
1.317160
1.748284
2.013717
2.134579
2.201297
2.320062
2.364324
0.313726
0.582118
0.794991
1.010881
1.368193
1.964237
2.830662
3.333498
1.174814
2.239906
3.098524
3.792811
4.319062
4.651558
4.837514
5.147586
1.548400
2.944380
4.107851
4.996650
5.612588
6.005258
6.229106
6.428466
0.110914
0.221748
0.331100
0.436091
0.535334
0.634292
0.733861
1.003483
0.208192
0.417429
0.616392
0.816792
1.016546
1.209515
1.404094
1.047216
0.261834
0.523780
0.776881
1.016897
1.257229
1.494185
1.728489
1.245469
0.394911
0.774397
1.117521
1.405840
1.640240
1.842111
2.065965
2.751637
0.751498
1.888879
2.941948
3.521240
3.530568
3.669852
3.861472
3.462912
2.182268
4.209263
5.824714
6.919784
7.537741
7.780506
7.734971
7.728134
2.480022
4.686421
6.420617
7.585695
8.194155
8.383199
8.327533
8.473191
1.103154
2.086624
2.856733
3.408732
3.988195
4.981089
6.721375
9.195032
0.427661
0.807659
1.112578
1.347304
1.502213
1.572194
1.578573
1.261738
0.268063
0.537819
0.809194
1.081571
1.356607
1.633856
1.910830
1.993711
0.390026
0.781235
1.166987
1.549319
1.924359
2.295200
2.666858
2.949891
0.566534
0.937099
1.297155
1.339886
1.672971
2.151876
2.961486
2.216496
0.078794
0.136765
0.160110
0.253576
0.499125
0.882181
1.370209
1.762003
0.668438
1.284496
1.839592
2.317477
2.681928
2.979609
3.253945
3.920837
0.464917
0.935498
1.399642
1.865903
2.334639
2.804453
3.273081
3.461539
2.177845
4.121393
5.652865
6.669224
7.186670
7.376866
7.456452
7.612481
2.734692
5.043846
6.620328
7.623155
8.165604
8.458821
8.618449
7.911902
1.765583
3.504955
5.329308
5.943827
5.861628
5.975075
6.291596
4.527472
0.753837
1.527843
2.432067
3.067505
3.523416
4.147501
4.902422
5.436680
1.266436
2.526129
3.594021
4.428797
4.998188
5.372443
5.579482
5.580512
8.447119
6.553541
7.189049
7.119485
7.735153
7.932346
7.133594
8.115478
6.496999
6.322930
7.801203
8.136355
7.229378
7.861183
7.002018
7.758498
8.193247
7.555447
6.889291
7.543699
7.256421
7.533204
6.137118
7.673244
6.529413
6.441849
6.342665
6.565659
7.281468
7.593411
6.576262
7.014881
7.243736
7.680008
6.694320
7.260647
7.080865
7.235661
7.186969
7.144471
9.062197
9.119024
9.124977
8.848869
8.848718
8.970798
9.182050
8.816518
8.998574
9.229502
8.961443
9.258098
8.465480
8.534545
8.735428
8.704551
8.894633
8.616305
7.680380
6.817633
7.619214
5.814652
7.397713
5.115501
7.245870
6.753971
7.344090
7.395013
7.098605
6.728952
6.124489
7.053227
5.557259
5.467557
6.982704
6.254420
5.930312
6.022355
8.296813
8.433725
8.428551
8.626794
7.723971
8.290312
7.359696
8.442427
8.246903
7.447884
7.597915
7.662671
7.986740
3.813593
6.324440
4.099333
4.956681
6.365999
3.712483
5.040136
4.774001
5.584951
5.838653
6.698960
6.041074
6.215863
5.001221
4.916890
6.348288
6.253751
5.571725
5.121821
4.764905
4.644825
4.639875
4.764567
5.454721
5.501038
4.629226
4.644825
4.639875
5.788651
5.795652
5.665256
5.651238
5.371477
5.128229
4.854646
4.999589
5.563253
5.284217
5.393578
6.686201
6.657032
6.897626
6.864923
6.436526
6.648639
6.553859
6.392736
5.969226
6.997887
6.299111
6.393848
5.848435
6.077217
6.227002
6.085686
6.316527
5.967575
6.570305
6.406613
8.480230
7.592297
6.864755
8.545142
8.225147
8.958194
8.170437
7.834101
9.061557
7.809455
8.654876
8.576178
8.929046
8.970806
7.941369
8.824681
8.177176
8.817912
8.579758
8.369458
8.165848
7.350994
6.767789
8.280966
7.766020
6.842643
6.699884
6.734336
8.825486
7.013715
7.886676
8.249887
8.852533
7.143462
7.105032
7.699603
7.526705
8.756122
7.675763
7.748109
6.971813
2.918443
3.894318
3.178762
1.939329
3.233591
3.780273
3.006268
3.167743
3.639642
3.459121
3.526428
3.321545
5.097235
4.896894
5.264811
4.178332
5.109474
4.628799
4.939646
4.634904
4.462163
4.952600
4.667154
4.659228
4.447874
4.459668
6.130370
5.132984
4.651790
4.380637
5.157954
4.536087
5.459969
5.587600
5.710879
5.944769
15.302352
14.256647
16.151944
13.893893
15.792650
14.374911
14.353379
14.391286
14.541939
14.979682
12.789910
15.660633
14.050473
14.073362
15.692310
14.026099
15.661440
14.633027
14.940718
13.183275
3.879138
3.784851
3.545982
3.347157
2.391991
2.531824
2.774439
2.840451
2.661333
3.731498
3.062093
3.392140
3.301881
2.893414
2.923323
3.893365
3.882485
3.666862
3.694573
3.707447
4.096079
4.192646
3.659897
3.529314
4.073045
4.179932
4.021282
3.583214
4.051043
3.969133
3.848159
5.131955
5.643399
5.340215
4.773380
4.977182
5.689733
5.600959
5.096467
4.691476
5.649705
5.290079
5.203848
5.098119
4.892849
5.566786
5.648533
5.308547
6.607387
6.450636
6.553376
6.495643
6.357336
6.432873
6.616378
6.521470
6.361966
5.999229
6.745358
6.541573
6.587393
6.350690
6.511852
6.388781
6.381729
0.503148
0.616807
1.190306
1.071285
0.942923
1.193474
0.854910
0.689385
0.457241
1.003827
0.792919
0.648843
0.503148
0.616807
1.190306
1.071285
0.547492
0.813839
0.792230
1.128484
1.290388
0.659795
0.827581
0.994030
1.421863
1.195813
1.928931
1.852001
2.120684
1.258036
1.189111
1.262055
1.249977
1.746124
1.644973
1.509544
1.421863
1.195813
1.928931
1.852001
1.489807
1.575247
0.912325
1.988702
1.985157
1.324230
1.292964
1.354596
2.153310
2.356054
1.457045
1.465631
1.927617
2.035954
1.514434
2.284318
2.208522
2.118269
2.153310
2.356054
1.457045
1.465631
1.376379
1.933262
2.065644
1.456580
1.994910
1.456804
1.616479
1.655506
1.313940
2.721367
2.201426
1.749744
2.672625
2.393803
2.561144
1.566398
2.510746
2.589516
1.313940
2.721367
2.201426
1.749744
2.252811
2.328516
1.811214
2.007214
2.623659
2.062659
5.759179
6.043953
3.839912
6.037418
5.199969
3.922889
5.910255
6.021116
4.921419
3.162290
6.021655
5.209473
4.638174
5.289010
4.433772
5.401007
5.248324
7.596327
7.503755
7.158135
7.533877
7.034334
7.437291
7.403616
6.983464
7.328242
7.072385
7.036426
8.124304
8.004394
8.119505
8.118015
8.546192
8.188191
8.295635
7.948628
6.760503
8.366486
8.046332
7.881720
7.969486
6.964627
8.497698
8.026291
7.095943
9.951394
8.921416
8.269479
9.011290
8.749011
9.248315
9.517016
9.121174
7.528179
8.842566
8.406743
9.580606
7.892118
7.773081
8.910768
8.643615
9.156250
8.549810
8.255053
1.410514
1.998682
1.916192
2.200773
1.401749
1.298705
1.215983
2.007127
1.531770
1.460574
1.650612
2.099330
1.619366
1.694770
1.178649
2.296354
2.320268
1.617360
1.487606
1.224568
1.731648
2.171558
1.810483
1.929205
2.071221
1.877484
2.002477
2.175798
2.349498
1.775218
1.989500
2.190264
2.438871
2.204981
1.858433
2.024770
2.153050
1.952463
2.004981
2.263609
2.135650
2.506470
1.998315
2.154470
2.147900
2.369187
2.489174
2.188519
2.314144
2.455456
2.601886
2.752455
3.003476
3.137806
2.560307
2.757003
2.753978
2.844764
2.732834
2.582199
2.692360
2.745852
2.794789
3.160520
2.755932
3.174047
3.202114
2.804714
2.724024
2.852346
3.259565
3.278793
3.010178
3.109863
3.231277
3.655306
3.938700
3.556593
3.200093
3.782083
2.583877
4.018484
4.064825
3.908832
3.654358
3.187077
4.082730
3.087853
3.847863
3.874371
3.524487
3.698352
2.299011
4.079174
3.022927
3.445200
4.401463
3.478986
3.235927
3.059058
2.176602
2.107322
2.540703
2.030856
1.663617
2.589927
2.184494
2.202281
2.752794
2.463924
2.367143
2.283047
2.131986
2.227188
2.253471
1.843534
1.879317
1.825151
1.945594
1.972409
2.083458
2.836763
2.714156
2.595172
3.450306
3.995389
2.894628
2.956307
3.652927
2.829858
3.062565
2.990943
3.001784
3.511229
3.090922
2.909260
3.145824
3.275570
4.042926
3.722680
3.602215
3.872340
3.247261
3.538600
3.058848
3.385971
3.559371
3.694890
3.293715
3.286723
3.878619
3.746513
3.415938
3.399785
3.896023
3.508553
4.165712
4.011704
4.048668
4.043922
3.649341
7.693216
8.278768
7.980924
7.832078
7.713729
7.415825
7.726382
7.398712
7.406645
8.013716
7.382128
7.376163
7.277172
7.309468
7.389624
7.373624
9.361200
7.712479
8.899768
7.854369
7.677086
9.285760
8.295134
8.754728
6.725458
8.687533
8.513732
8.029133
8.862117
6.622472
8.870254
8.749529
7.920558
7.253602
8.576641
8.124234
4.219091
6.108327
5.829331
5.868991
6.930537
4.126958
7.012930
4.795420
7.067404
6.519699
4.731837
7.212122
5.704383
7.451403
6.528851
3.837173
5.140551
6.111705
5.087073
6.139642
3.905899
5.496628
5.068712
5.628082
5.016066
4.525380
4.811587
6.321157
6.139223
6.891240
4.617967
5.003072
5.968443
4.680944
4.685430
5.909292
4.880795
5.593651
5.339944
5.751395
4.593925
5.241809
5.678583
5.283202
5.553343
4.865245
5.603124
4.794566
4.239279
0.000000
2.659590
5.134778
7.103637
8.519897
9.471253
10.257644
11.191909
12.546671
0.000000
3.030163
5.771882
8.001849
9.600889
10.648655
11.351176
11.891253
11.932219
0.000000
1.638345
3.245670
3.925832
3.693927
3.287864
3.118813
5.106179
7.002840
0.000000
3.103058
5.882191
8.130714
9.414941
9.807753
9.640091
9.418266
7.765268
0.000000
3.697056
7.000083
9.613988
11.376710
12.420840
13.093603
13.629177
14.242394
0.000000
1.658179
3.022335
3.911876
4.439134
4.639108
4.655173
4.830528
5.992050
0.000000
1.046411
1.953453
2.816593
3.020765
2.620126
2.212427
3.177423
4.067939
0.000000
0.537218
0.966628
1.189432
1.166255
1.017944
1.236557
2.150785
3.858794
0.000000
0.385931
0.773947
1.162088
1.548696
1.933860
2.320694
2.703854
2.913506
0.000000
2.110508
3.294984
4.382465
4.813145
4.853278
4.724541
4.933412
5.557313
0.000000
1.007077
1.884106
2.536468
2.943658
3.178437
3.426861
3.953060
4.404754
0.000000
2.241368
4.512404
6.620374
8.153658
8.948551
9.071855
8.387530
7.311790
0.000000
0.634188
1.223182
1.736485
2.146839
2.448492
2.652718
2.767148
3.216650
0.000000
1.020558
1.958154
2.732394
3.298696
3.627712
3.734805
3.666901
3.991978
0.000000
0.414506
0.797504
1.123059
1.373924
1.549946
1.674689
1.790182
2.139755
0.000000
0.342907
0.650574
0.886761
1.029474
1.072152
1.021200
0.915840
0.902205
0.000000
0.852922
1.713124
2.566256
3.420005
4.280523
5.136991
5.991473
6.777322
0.000000
1.068614
2.130418
3.191620
4.248338
5.304214
6.366521
7.421938
8.432417
0.000000
0.672915
1.323734
1.951277
2.605705
3.252691
3.879046
4.475145
5.405309
0.000000
2.842855
5.331406
7.298118
8.623697
9.375064
9.797976
10.231128
10.434884
0.000000
4.476014
8.565223
11.775485
13.955674
15.216339
15.899505
16.297749
16.326618
0.000000
3.411152
6.433827
8.636700
9.849363
10.187921
9.948133
9.532100
10.091355
0.000000
0.862805
1.658604
2.322399
2.977261
3.767910
4.848924
6.446698
8.653177
0.000000
4.372540
8.682992
12.232952
14.487249
15.616886
15.821293
15.774838
15.462357
0.000000
0.154413
0.358060
0.715710
1.265688
2.038752
3.026167
4.237491
5.427131
0.000000
1.536523
2.741343
3.748429
4.643900
5.147038
5.741935
6.479115
6.822680
0.000000
1.202373
2.393054
3.580108
4.775936
5.968252
7.161866
8.350539
9.763629
0.000000
2.898678
5.472753
7.703327
9.273154
10.242435
11.099013
12.379182
13.783373
0.000000
0.986471
2.064401
2.895623
3.669416
4.501050
5.674621
7.616299
9.475096
12.741272
12.710931
12.558884
12.245295
13.059741
12.956798
12.527592
12.409944
12.361578
12.900709
12.704200
12.583432
12.444614
12.308787
12.377522
12.293105
11.893384
12.552825
12.539993
12.521853
12.116541
12.603183
12.382201
12.099708
12.377961
12.673298
12.607746
7.202580
6.642807
9.654028
9.646554
7.683431
7.421276
7.667607
8.369572
7.250690
8.885099
8.461469
7.616796
7.216798
8.934506
6.397903
9.142183
8.279654
9.833299
8.364048
7.831405
8.956797
9.254434
7.908529
9.193248
9.391993
8.542378
8.775684
7.070945
8.113765
9.083711
8.763851
9.962529
9.340684
10.029465
9.450398
8.258910
7.818620
10.674531
10.792032
10.183041
10.427086
7.780764
13.981809
14.054098
14.024891
13.717482
14.207948
14.184398
12.803688
13.188570
13.429460
14.184741
14.177023
14.208196
14.184996
12.813079
13.274707
13.436669
14.104092
14.132333
13.751618
14.199869
13.454285
13.665261
14.231504
13.739347
14.185472
13.091485
13.006442
13.182202
14.131073
14.125795
6.011907
5.748053
6.039402
4.964333
5.654943
6.077311
5.002188
5.675981
5.846847
6.454580
5.809622
6.240532
4.967355
5.162905
4.987972
5.825066
5.005129
5.183160
6.131031
5.047084
5.078489
4.587645
3.440559
4.554362
5.256876
5.366225
3.847393
5.746585
4.266483
5.660377
3.951140
4.447940
5.683718
5.695073
5.172667
4.749672
5.772765
5.780137
3.839363
3.250805
3.821114
3.765088
3.166928
2.680843
3.408564
3.630265
3.277286
3.550220
3.780890
3.372259
3.638803
3.743739
3.751145
3.240667
3.105851
2.284298
2.657234
3.297550
2.754460
3.123378
3.177030
2.683983
3.184051
3.038295
2.871443
4.917176
4.410021
5.032326
5.150883
4.492902
4.805046
3.529097
3.746182
5.012524
4.921785
5.285419
4.972876
4.986542
4.705531
5.368026
4.940441
5.217301
4.240489
5.425705
3.943189
5.047349
5.158926
5.226903
5.247397
4.210331
5.062227
5.009294
4.836649
8.180721
7.655652
6.912888
6.489758
8.475282
6.608016
6.334634
6.558228
8.593701
7.577306
7.112229
6.779077
3.117316
3.077666
2.582159
3.035906
3.281062
3.186129
3.133053
2.979763
3.385357
2.844607
3.224706
2.938766
3.055474
3.020538
2.787492
2.979582
2.656200
2.712755
4.304261
3.904106
3.870961
3.052804
3.311246
3.252487
4.104195
3.131935
3.448054
3.497427
2.695236
3.462364
2.377426
2.508618
3.057318
3.504938
2.491682
3.692041
2.317125
2.170840
2.104507
2.157057
1.791998
1.947160
1.886698
2.125801
1.805598
2.091456
1.941607
2.127860
1.854677
1.898915
1.563419
1.781014
1.958623
1.802413
1.696480
1.995788
1.911710
1.891499
1.937444
0.641059
0.637638
0.628463
0.813238
0.720421
0.796074
0.711331
0.782191
0.939217
1.051330
0.751542
0.963847
1.051535
1.044336
1.018713
1.087442
1.005462
1.120292
1.065509
1.202127
7.099337
6.913439
7.087487
6.513883
6.792571
6.963642
7.333963
6.691865
6.627794
7.297395
6.621903
6.753852
7.010357
7.148319
6.826762
7.026251
8.863484
8.859199
8.713202
8.510264
8.073440
8.328759
8.656614
8.808080
8.866678
8.379461
8.531256
8.707345
8.902020
9.051739
8.538577
8.692644
8.824358
5.527824
4.496452
5.268130
5.117323
4.758027
4.383872
5.102552
4.979182
5.120777
5.593344
4.948717
4.162909
5.063314
5.675415
4.887905
4.355498
6.500114
5.094691
4.696446
5.486163
12.085689
11.469347
9.443485
10.832258
10.602535
10.481356
10.215446
10.291668
10.358373
9.166495
9.935248
10.831573
11.944193
9.933265
9.866059
10.139856
11.050935
9.813470
10.658601
10.936956
16.009709
16.476861
16.452861
16.557109
16.816669
16.450229
16.274380
16.505832
16.631893
15.527964
16.187691
16.630961
16.506517
15.364271
16.262031
16.570813
16.371860
16.449752
16.627719
16.433895
16.420237
8.579106
10.010022
9.021900
9.687572
7.789655
9.597512
9.051622
9.920357
9.212565
9.674777
9.127940
10.499622
10.096881
10.414519
9.173636
9.499659
10.771399
9.275123
9.983815
8.883285
7.972067
9.302866
8.844230
8.885978
8.715144
9.024888
9.056024
8.714149
8.597156
8.656154
7.925341
8.506723
8.530582
14.718079
16.165081
14.839834
16.151793
14.649587
16.463750
15.772017
16.359026
15.866357
14.942101
14.481740
16.041925
15.846595
16.340233
14.822250
15.064398
14.383355
14.663088
14.456176
14.640682
16.935430
15.259260
14.774775
5.020137
5.327485
5.498776
5.771801
5.688869
5.210994
5.290982
5.644402
5.777799
5.279970
5.291879
5.652850
5.509527
5.691011
5.351252
5.555851
5.719365
5.665063
8.722579
7.713412
7.449334
8.408081
5.975604
7.331456
8.460776
8.026926
7.659310
7.145256
7.214439
9.849368
9.805670
9.670549
9.607005
9.723070
9.812034
9.665963
9.584947
9.337268
9.623937
9.830967
9.817934
9.518429
9.691784
9.726314
9.590779
14.958748
15.253908
14.563638
15.007472
15.163934
14.311812
14.056802
13.953428
14.848963
14.150759
13.849086
14.210307
14.602797
14.696957
13.862468
14.209409
13.891971
14.299724
14.437843
14.325143
14.351352
10.313073
9.325288
10.213864
10.610324
10.294874
9.091886
10.744452
9.686688
10.942339
9.581436
10.824856
10.757933
9.881481
10.024490
10.307735
10.746507
10.468429
10.853099
10.816932
10.585109
10.326422
10.405362
10.331664
10.282678
10.656247
SCALARS CTHICK float 1
LOOKUP_TABLE default
0.145898
0.179101
0.184164
0.185131
0.184505
0.183578
0.181997
0.180325
0.178697
0.176913
0.176913
0.173546
0.173017
0.172288
0.172013
0.171901
0.171448
0.171341
0.171416
0.171446
0.171684
0.171746
0.171816
0.171584
0.171293
0.170886
0.170589
0.170168
0.169925
0.169713
0.169686
0.169658
0.169658
0.169683
0.169888
0.170163
0.170467
0.170756
0.171238
0.171740
0.172450
0.173136
0.174018
0.174878
0.175648
0.176278
0.176911
0.177704
0.178358
0.161388
0.138904
0.138904
0.175492
0.174153
0.172926
0.171839
0.170760
0.169823
0.168921
0.168181
0.167657
0.167657
0.167834
0.167834
0.168512
0.169413
0.171318
0.175310
0.182567
0.190105
0.199450
0.174420
0.170922
0.142338
0.193155
0.198025
0.192914
0.188348
0.182423
0.170235
0.165360
0.175816
0.170960
0.177378
0.177497
0.175103
0.163275
0.163412
0.160057
0.177994
0.177994
0.190708
0.178120
0.183604
0.180945
0.171502
0.166323
0.166323
0.166848
0.173235
0.182234
0.159784
0.159784
0.168146
0.162583
0.155108
0.165764
0.178597
0.175918
0.175918
0.180168
0.190114
0.163490
0.163490
0.170475
0.165735
0.166063
0.162134
0.153484
0.147297
0.173351
0.183603
0.181222
0.168978
0.155003
0.182101
0.167084
0.189986
0.126359
0.126359
0.132483
0.169465
0.176755
0.181412
0.181376
0.181829
0.174652
0.173538
0.168647
0.147665
0.159252
0.151260
0.166386
0.174308
0.179484
0.182845
0.181937
0.178117
0.172508
0.165280
0.160537
0.160537
0.167269
0.171392
0.174209
0.174209
0.183856
0.174326
0.172277
0.172361
0.173330
0.172929
0.174490
0.174276
0.173670
0.173670
0.175478
0.176956
0.180397
0.184251
0.193696
0.206678
0.152197
0.198732
0.174759
0.152197
0.142338
0.142338
0.159681
0.192941
0.188132
0.179803
0.171019
0.157047
0.156545
0.149849
0.163012
0.170650
0.174749
0.164988
0.140344
0.138495
0.138495
0.164093
0.153026
0.183604
0.179948
0.171502
0.166323
0.166848
0.173235
0.177851
0.189122
0.159784
0.167499
0.155108
0.155108
0.165764
0.180729
0.178453
0.176440
0.175107
0.173894
0.172683
0.171769
0.170760
0.169823
0.168921
0.168181
0.167657
0.171160
0.173789
0.177305
0.182026
0.187106
0.192868
0.198530
0.197105
0.178597
0.175918
0.175842
0.181672
0.183051
0.163490
0.158273
0.165735
0.162134
0.153502
0.135414
0.125161
0.125161
0.173351
0.175163
0.155935
0.135115
0.138579
0.140916
0.163871
0.133586
0.126359
0.132483
0.147312
0.169465
0.176755
0.177168
0.174652
0.172196
0.168647
0.158076
0.131359
0.131242
0.131242
0.164424
0.169048
0.173645
0.179406
0.181937
0.178117
0.172508
0.165280
0.174612
0.160537
0.167269
0.171392
0.174209
0.190147
0.183856
0.178533
0.177423
0.177052
0.176381
0.175714
0.175145
0.174588
0.174018
0.173106
0.172450
0.171740
0.171238
0.170756
0.170467
0.170163
0.169888
0.169683
0.169658
0.169686
0.169713
0.169925
0.170168
0.170589
0.170886
0.171230
0.171519
0.171584
0.171660
0.171402
0.171381
0.170905
0.170599
0.170555
0.170354
0.170297
0.170361
0.170862
0.173017
0.173546
0.176217
0.177770
0.179312
0.180692
0.181558
0.181907
0.181791
0.211817
0.194240
0.187867
0.182858
0.179238
0.177024
0.176139
0.178004
0.178407
0.178696
0.179019
0.178816
0.178681
0.154973
0.184289
0.200449
0.184232
0.171540
0.153487
0.135004
0.131484
0.131484
0.159175
0.173566
0.173566
0.132359
0.132359
0.153026
0.132359
0.153649
0.179629
0.178630
0.175294
0.178426
0.174958
0.157736
0.176487
0.171275
0.166349
0.170699
0.172081
0.182573
0.203179
0.172833
0.171578
0.162302
0.173086
0.173086
0.158273
0.143479
0.153663
0.160766
0.159825
0.146441
0.125161
0.138805
0.160397
0.165671
0.150507
0.128911
0.128911
0.137713
0.144523
0.166960
0.171877
0.174061
0.173088
0.172196
0.170331
0.167660
0.152363
0.142060
0.131242
0.143153
0.150779
0.164424
0.172478
0.178181
0.180261
0.179935
0.175167
0.191754
0.176878
0.174612
0.179561
0.186408
0.186409
0.200421
0.146217
0.163417
0.172496
0.160302
0.180388
0.182371
0.177874
0.177182
0.176441
0.175925
0.175645
0.175099
0.174536
0.174026
0.173106
0.172770
0.172264
0.172112
0.171515
0.171289
0.170988
0.170787
0.170534
0.170544
0.170766
0.170746
0.171165
0.171114
0.171498
0.171535
0.171731
0.171696
0.171653
0.171402
0.171170
0.170630
0.170279
0.169637
0.169096
0.168751
0.168799
0.170361
0.170862
0.173863
0.175660
0.177232
0.178469
0.179347
0.179655
0.179489
0.179093
0.177225
0.175739
0.174453
0.173446
0.172623
0.171769
0.170851
0.170182
0.169566
0.168888
0.171637
0.174807
0.179309
0.183965
0.189590
0.195726
0.195787
0.191642
0.185125
0.181931
0.179147
0.179147
0.177024
0.179052
0.179011
0.179239
0.178920
0.178214
0.148589
0.197446
0.178550
0.162823
0.164771
0.164771
0.156575
0.135280
0.138780
0.138780
0.159059
0.171540
0.154269
0.162279
0.152922
0.170699
0.180438
0.198123
0.198808
0.184920
0.172438
0.168128
0.169037
0.168173
0.162333
0.146642
0.152785
0.152785
0.167884
0.163392
0.148200
0.124117
0.125083
0.121373
0.137941
0.165610
0.159825
0.146441
0.177482
0.172276
0.148110
0.128911
0.162408
0.174852
0.171877
0.173056
0.173088
0.167627
0.165181
0.160165
0.167985
0.146924
0.160715
0.166042
0.172972
0.175789
0.177238
0.181336
0.179935
0.190984
0.209863
0.192805
0.181729
0.177096
0.161223
0.185194
0.156547
0.170549
0.175695
0.178480
0.179147
0.179739
0.179607
0.179607
0.179164
0.178072
0.177640
0.201269
0.194737
0.196203
0.177007
0.173353
0.163613
0.144015
0.131484
0.141547
0.146747
0.159175
0.162118
0.177547
0.175926
0.174944
0.173958
0.173193
0.172536
0.171818
0.171280
0.170518
0.170518
0.171785
0.175570
0.179612
0.184398
0.188721
0.192060
0.197352
0.176786
0.176298
0.175925
0.175645
0.175099
0.174536
0.174131
0.173745
0.173244
0.172884
0.172800
0.172255
0.172028
0.171644
0.171383
0.171343
0.171381
0.171755
0.171703
0.171817
0.171811
0.171738
0.171653
0.171696
0.171653
0.171653
0.171170
0.170630
0.169751
0.168977
0.168175
0.167683
0.168751
0.168799
0.171724
0.173641
0.175164
0.176532
0.177537
0.177698
0.177558
0.141244
0.148393
0.148393
0.157467
0.133223
0.133223
0.140816
0.172028
0.138291
0.164409
0.152481
0.136098
0.133229
0.131438
0.159070
0.187213
0.210539
0.196182
0.182309
0.177788
0.171372
0.154625
0.160319
0.157746
0.167559
0.163767
0.144216
0.144216
0.161190
0.157736
0.168385
0.156493
0.124117
0.121373
0.121373
0.151768
0.152091
0.173624
0.186361
0.164748
0.172585
0.172276
0.167953
0.172967
0.172967
0.174501
0.170614
0.168551
0.160406
0.152230
0.136408
0.158275
0.141580
0.158255
0.166470
0.169666
0.178899
0.180359
0.186027
0.196798
0.202446
0.185235
0.181729
0.160698
0.137729
0.141180
0.136136
0.156331
0.175695
0.177693
0.177693
0.179944
0.179807
0.179396
0.178072
0.177563
0.194826
0.186482
0.176160
0.175033
0.174212
0.173330
0.172789
0.172078
0.171071
0.170596
0.170108
0.173284
0.175017
0.179160
0.182885
0.187309
0.190909
0.190202
0.180234
0.158733
0.181503
0.148151
0.162126
0.148943
0.144015
0.139992
0.139992
0.169590
0.151458
0.176786
0.176298
0.175957
0.175676
0.175152
0.174932
0.174131
0.174189
0.173833
0.173621
0.173413
0.172848
0.172353
0.172013
0.171874
0.172215
0.172197
0.172296
0.172166
0.171969
0.171408
0.171519
0.171653
0.171858
0.171660
0.171246
0.170561
0.169746
0.168430
0.167446
0.166392
0.167683
0.169474
0.171419
0.173083
0.174589
0.175779
0.176046
0.176268
0.139992
0.142276
0.133223
0.157786
0.171319
0.164409
0.136098
0.131438
0.131438
0.147973
0.193086
0.181753
0.179834
0.176077
0.173648
0.171464
0.159723
0.163473
0.135812
0.135812
0.138164
0.164810
0.163767
0.144216
0.179313
0.137255
0.174047
0.126347
0.146441
0.157385
0.172137
0.169342
0.159787
0.142868
0.136506
0.157928
0.157497
0.152195
0.135812
0.152132
0.158443
0.170541
0.168411
0.155482
0.162548
0.163405
0.143903
0.150940
0.148817
0.172327
0.168385
0.144901
0.122788
0.167647
0.181903
0.161715
0.141519
0.139450
0.172585
0.159847
0.174708
0.172763
0.163902
0.161831
0.136073
0.117761
0.121386
0.122928
0.141220
0.152799
0.172381
0.173548
0.183670
0.193356
0.196798
0.187899
0.178952
0.175626
0.186482
0.177866
0.182652
0.173268
0.166105
0.137729
0.136136
0.136136
0.164834
0.168527
0.177423
0.177423
0.180065
0.179686
0.178431
0.177563
0.175009
0.173912
0.173339
0.172532
0.171359
0.170577
0.169608
0.169037
0.170108
0.174381
0.178037
0.182361
0.186512
0.189089
0.188488
0.160739
0.134799
0.134799
0.132010
0.133395
0.154949
0.152150
0.127861
0.128997
0.128125
0.147481
0.149779
0.157467
0.177020
0.176509
0.176171
0.175448
0.175152
0.174997
0.174581
0.174672
0.174706
0.174359
0.173334
0.172836
0.172317
0.172317
0.172392
0.172730
0.172697
0.172349
0.171348
0.170734
0.170713
0.171519
0.171731
0.171972
0.171432
0.170561
0.169192
0.168082
0.166464
0.164908
0.166392
0.168600
0.170567
0.172353
0.173806
0.174445
0.174727
0.126455
0.126026
0.146315
0.139450
0.157980
0.178504
0.167825
0.153509
0.144505
0.117761
0.117761
0.122327
0.148479
0.162519
0.164895
0.177869
0.187230
0.196122
0.193384
0.178809
0.170034
0.169678
0.164497
0.169678
0.174410
0.177866
0.169275
0.181173
0.161090
0.136884
0.169052
0.204660
0.131032
0.146441
0.142857
0.157811
0.165204
0.165114
0.150722
0.136506
0.147092
0.136506
0.157879
0.171785
0.154126
0.170534
0.170541
0.150515
0.130814
0.128521
0.128521
0.143261
0.144718
0.160046
0.148817
0.178356
0.185356
0.166969
0.145703
0.126347
0.126347
0.161452
0.176177
0.178810
0.177423
0.180030
0.178870
0.177851
0.173859
0.172846
0.171630
0.170509
0.169403
0.168329
0.169037
0.169037
0.173014
0.177632
0.182444
0.185884
0.188488
0.175586
0.167385
0.136379
0.125618
0.125618
0.134319
0.133395
0.133395
0.170566
0.185036
0.183844
0.192916
0.180397
0.139450
0.177384
0.176356
0.175743
0.175030
0.175096
0.175076
0.175703
0.175852
0.175528
0.173946
0.172315
0.172315
0.172317
0.172659
0.173025
0.173001
0.172246
0.170470
0.169133
0.169841
0.170713
0.171633
0.172275
0.171764
0.170419
0.168942
0.167235
0.165442
0.164908
0.164908
0.167226
0.169547
0.171383
0.172700
0.173315
0.143537
0.171319
0.172260
0.170898
0.169505
0.167871
0.166087
0.167619
0.167619
0.171817
0.177212
0.182013
0.186545
0.189094
0.189234
0.163886
0.125618
0.178942
0.139776
0.120931
0.139694
0.158240
0.173621
0.185983
0.192795
0.195089
0.183199
0.165720
0.166088
0.157389
0.158503
0.146861
0.159981
0.170121
0.173815
0.162522
0.148156
0.176156
0.171225
0.126026
0.126026
0.196699
0.201759
0.186131
0.203311
0.181274
0.144672
0.128549
0.128549
0.127767
0.126560
0.126560
0.144266
0.167626
0.165114
0.150722
0.162617
0.155728
0.166938
0.178220
0.189760
0.194433
0.179294
0.169416
0.168428
0.136926
0.128521
0.142381
0.144718
0.167080
0.181764
0.188776
0.197258
0.187201
0.191175
0.160599
0.178152
0.176680
0.175391
0.174114
0.175028
0.175096
0.176441
0.177064
0.176645
0.173585
0.171613
0.171613
0.174842
0.174180
0.173402
0.173265
0.171477
0.168310
0.169133
0.169133
0.169841
0.171632
0.172632
0.171219
0.169666
0.168108
0.165892
0.163934
0.163985
0.162977
0.165634
0.168212
0.170169
0.171362
0.175403
0.177490
0.180191
0.178876
0.182434
0.160047
0.172692
0.185357
0.148394
0.140756
0.155188
0.142705
0.153714
0.150714
0.125507
0.125801
0.153218
0.168391
0.166852
0.147946
0.127945
0.137983
0.133798
0.162629
0.174110
0.175881
0.176772
0.196217
0.205878
0.188845
0.169209
0.152726
0.164043
0.141379
0.126560
0.133526
0.153520
0.161735
0.164415
0.171626
0.158303
0.138362
0.158093
0.159670
0.163621
0.157725
0.144316
0.125855
0.141287
0.162617
0.159206
0.167057
0.179528
0.178424
0.160995
0.165017
0.178871
0.167494
0.138127
0.169558
0.157479
0.174851
0.174114
0.174114
0.179252
0.180392
0.178983
0.177123
0.172613
0.172249
0.170532
0.174257
0.175163
0.174317
0.173132
0.169912
0.163961
0.168185
0.168185
0.170325
0.172249
0.172318
0.170568
0.168325
0.166446
0.164460
0.161966
0.161966
0.159999
0.163447
0.166392
0.168292
0.169608
0.167857
0.165630
0.163313
0.165270
0.165270
0.170284
0.175756
0.181648
0.186525
0.194540
0.171396
0.144845
0.140750
0.144845
0.197378
0.191885
0.193850
0.160995
0.165556
0.123487
0.123487
0.124256
0.142873
0.145114
0.125507
0.140271
0.125507
0.147216
0.152306
0.170387
0.159214
0.152569
0.126525
0.126525
0.130308
0.156074
0.163159
0.171206
0.174851
0.174937
0.179581
0.182382
0.178122
0.172743
0.167618
0.167618
0.159961
0.170970
0.172576
0.175819
0.169755
0.165091
0.162278
0.160274
0.165618
0.167818
0.173268
0.172028
0.168726
0.166502
0.164865
0.162595
0.159422
0.159422
0.155469
0.159939
0.163489
0.165687
0.163262
0.159410
0.162221
0.159974
0.166833
0.173537
0.179692
0.186299
0.195859
0.133674
0.123487
0.130556
0.159853
0.161932
0.156097
0.153113
0.123336
0.142651
0.175930
0.175477
0.170387
0.143551
0.126525
0.143455
0.170090
0.159751
0.154026
0.157417
0.149847
0.161556
0.169146
0.176238
0.183360
0.190752
0.181095
0.177872
0.176049
0.169414
0.156830
0.162475
0.159085
0.140965
0.140965
0.145674
0.152713
0.124451
0.124451
0.124662
0.142652
0.140570
0.140570
0.167644
0.173218
0.162590
0.165556
0.152575
0.166987
0.161812
0.160995
0.165463
0.187353
0.169722
0.175291
0.180908
0.182853
0.169332
0.156631
0.140182
0.154644
0.155880
0.171757
0.178005
0.165474
0.153131
0.154301
0.142453
0.155178
0.169086
0.174334
0.169855
0.165649
0.166007
0.161166
0.160100
0.155760
0.154453
0.148413
0.155393
0.162051
0.157986
0.140311
0.120581
0.127285
0.126637
0.152895
0.124662
0.124646
0.124451
0.163137
0.165642
0.165642
0.156580
0.160951
0.151826
0.146501
0.145482
0.136488
0.148588
0.132809
0.149785
0.149095
0.158058
0.179424
0.130556
0.161889
0.178611
0.170181
0.155061
0.136178
0.146607
0.140965
0.191525
0.142338
0.116821
0.131285
0.192178
0.191602
0.182015
0.169714
0.160135
0.159085
0.147737
0.147737
0.139116
0.152877
0.143569
0.123222
0.121340
0.121340
0.122120
0.123766
0.146903
0.140570
0.149152
0.157171
0.162422
0.162422
0.150121
0.116821
0.121970
0.136395
0.166987
0.155018
0.159720
0.168548
0.139447
0.128548
0.116821
0.126637
0.123736
0.139285
0.119759
0.138530
0.120581
0.120581
0.164983
0.136178
0.136178
0.225185
0.135515
0.121340
0.203593
0.160249
0.151629
0.141225
0.174418
0.202282
0.207589
0.139945
0.197567
0.174326
0.171040
0.166705
0.162287
0.161412
0.164410
0.176572
0.175037
0.173523
0.172008
0.170859
0.170086
0.169451
0.169166
0.169036
0.169090
0.169012
0.169033
0.169060
0.169026
0.168990
0.168944
0.168885
0.168828
0.168777
0.168738
0.168700
0.168662
0.168628
0.168598
0.168570
0.168547
0.168536
0.168536
0.168540
0.168564
0.168606
0.168659
0.168712
0.168616
0.168537
0.168297
0.168231
0.168231
0.168284
0.168809
0.169589
0.170432
0.170664
0.170220
0.169626
0.169217
0.168734
0.168277
0.167811
0.167466
0.167302
0.167219
0.167138
0.167078
0.167078
0.167080
0.167174
0.167366
0.167673
0.168056
0.168479
0.168475
0.168261
0.167883
0.167833
0.167752
0.167752
0.167866
0.167968
0.168070
0.168168
0.168259
0.168349
0.168435
0.168521
0.168600
0.168686
0.168772
0.168863
0.168962
0.169080
0.169212
0.169373
0.169566
0.169817
0.170146
0.170556
0.171074
0.171728
0.172484
0.173355
0.174415
0.175357
0.175829
0.173896
0.169604
0.157586
0.153095
0.162590
0.170352
0.174206
0.175340
0.174348
0.173068
0.171585
0.170069
0.168433
0.166559
0.164154
0.161484
0.164324
0.167971
0.170280
0.170697
0.170755
0.171210
0.176328
0.176328
0.183513
0.191257
0.198307
0.201342
0.201046
0.193434
0.174420
0.192459
0.185573
0.178899
0.176206
0.176206
0.177091
0.177140
0.175535
0.173075
0.170551
0.170551
0.170923
0.171872
0.171024
0.168795
0.165709
0.165709
0.167969
0.171547
0.174283
0.174751
0.174880
0.172678
0.172678
0.167494
0.165169
0.159263
0.153413
0.158899
0.178551
0.171876
0.181157
0.182041
0.161180
0.161180
0.172573
0.180686
0.178997
0.178997
0.178635
0.174822
0.174822
0.174887
0.174514
0.172896
0.126731
0.122133
0.122133
0.182006
0.177761
0.180607
0.172133
0.170755
0.161865
0.168653
0.173309
0.173514
0.169716
0.164719
0.158245
0.167039
0.166744
0.171471
0.140310
0.136553
0.136553
0.183522
0.180791
0.181972
0.176129
0.171750
0.167648
0.171183
0.176853
0.175896
0.175896
0.174409
0.164955
0.160835
0.160766
0.159181
0.157435
0.153895
0.144139
0.144139
0.166989
0.176036
0.176036
0.182062
0.180224
0.180029
0.178156
0.175447
0.171960
0.165797
0.157180
0.172975
0.146408
0.145885
0.147314
0.158946
0.161367
0.162806
0.164098
0.170458
0.179149
0.182008
0.179077
0.169494
0.161433
0.161433
0.167868
0.168680
0.166778
0.164053
0.162480
0.166545
0.172024
0.176146
0.177588
0.176196
0.171663
0.179981
0.167409
0.173175
0.177038
0.179119
0.178651
0.173971
0.165920
0.165920
0.173996
0.178664
0.177724
0.172622
0.172622
0.177889
0.178216
0.174425
0.165958
0.165251
0.172410
0.180246
0.178442
0.171055
0.180694
0.175186
0.182299
0.184496
0.184388
0.175225
0.151238
0.141387
0.172401
0.172319
0.154068
0.178248
0.178248
0.177514
0.169345
0.175521
0.158277
0.159425
0.168808
0.174210
0.176272
0.176195
0.131631
0.131631
0.129800
0.173706
0.187635
0.192959
0.186473
0.188320
0.166244
0.159651
0.187055
0.106446
0.172031
0.112238
0.108462
0.108462
0.183129
0.172581
0.171926
0.170800
0.170345
0.168701
0.167450
0.166696
0.166428
0.165899
0.166260
0.167162
0.165083
0.164723
0.147225
0.174769
0.174420
0.198177
0.184795
0.183368
0.178899
0.176206
0.177091
0.177421
0.177140
0.175024
0.172407
0.170551
0.171872
0.172080
0.171024
0.168795
0.165709
0.167660
0.167660
0.170572
0.172436
0.174213
0.172746
0.172746
0.171169
0.168642
0.157616
0.145914
0.151735
0.140354
0.149183
0.155347
0.168396
0.174502
0.161180
0.167726
0.169764
0.185676
0.180686
0.174290
0.173374
0.175012
0.174417
0.171798
0.165752
0.164042
0.136486
0.122133
0.135440
0.170280
0.170026
0.171850
0.165550
0.166278
0.161865
0.161865
0.168745
0.170235
0.164971
0.159445
0.148248
0.157186
0.151583
0.161662
0.150930
0.136553
0.149248
0.169764
0.175435
0.175435
0.171574
0.149453
0.151706
0.156484
0.167918
0.168382
0.181424
0.173566
0.164955
0.160835
0.160766
0.159181
0.157435
0.153895
0.161617
0.144139
0.163392
0.180159
0.176036
0.182062
0.183833
0.172439
0.162382
0.160875
0.157811
0.147461
0.142167
0.131466
0.114383
0.133517
0.126480
0.143888
0.154865
0.159171
0.162160
0.167234
0.172725
0.175678
0.172787
0.167783
0.161433
0.164591
0.164591
0.166350
0.164170
0.159052
0.153054
0.160866
0.166545
0.172024
0.173006
0.170157
0.163484
0.166849
0.153548
0.161617
0.169045
0.173844
0.176565
0.172702
0.165920
0.168881
0.170251
0.176580
0.175754
0.170586
0.170586
0.176102
0.175531
0.170995
0.165251
0.165251
0.166808
0.175264
0.171306
0.157102
0.168711
0.160761
0.173077
0.179107
0.177091
0.163473
0.141387
0.141387
0.162652
0.206498
0.201306
0.186787
0.184556
0.183368
0.182638
0.181462
0.181400
0.178850
0.176437
0.173757
0.172407
0.173094
0.173191
0.172336
0.170755
0.168745
0.170482
0.169523
0.172240
0.173718
0.173760
0.174213
0.172746
0.172104
0.164254
0.162086
0.125829
0.125430
0.125430
0.138997
0.147374
0.145129
0.159571
0.173205
0.173746
0.190411
0.200670
0.184503
0.180630
0.172556
0.173374
0.171798
0.154732
0.141860
0.158728
0.149275
0.165146
0.158482
0.164919
0.159217
0.165413
0.163154
0.163154
0.168918
0.165825
0.164443
0.148252
0.131950
0.129007
0.129007
0.164805
0.157662
0.172380
0.172809
0.171574
0.161209
0.130534
0.130534
0.135797
0.151288
0.169757
0.197959
0.180996
0.173434
0.170237
0.171073
0.168073
0.177985
0.185167
0.162045
0.165645
0.181681
0.201144
0.169381
0.185489
0.157853
0.132593
0.139265
0.146753
0.144957
0.137800
0.124326
0.118929
0.097632
0.103030
0.103423
0.125162
0.138978
0.148879
0.157487
0.162520
0.167575
0.172151
0.173733
0.170804
0.166746
0.164712
0.164712
0.166350
0.158247
0.149300
0.151190
0.143380
0.160866
0.168331
0.171419
0.166100
0.156860
0.153548
0.141476
0.147476
0.160492
0.168239
0.172173
0.173797
0.170310
0.173290
0.174809
0.177397
0.173880
0.169814
0.169814
0.174634
0.176658
0.174731
0.169780
0.170803
0.170803
0.171813
0.163549
0.145006
0.150317
0.144260
0.163040
0.165803
0.169230
0.169958
0.177531
0.155094
0.174650
0.189647
0.184902
0.166376
0.175379
0.185139
0.185139
0.185491
0.183044
0.179908
0.176655
0.174687
0.173757
0.174623
0.174762
0.173988
0.173019
0.172084
0.172879
0.171437
0.173219
0.174203
0.173760
0.176194
0.177394
0.177037
0.168514
0.146282
0.141642
0.125430
0.133548
0.125573
0.121057
0.121057
0.145193
0.179313
0.191681
0.196858
0.185728
0.170977
0.167244
0.172556
0.175881
0.167474
0.141773
0.127172
0.127172
0.125132
0.139692
0.148221
0.155917
0.152434
0.161009
0.164734
0.166766
0.169712
0.165105
0.159716
0.159136
0.143092
0.129007
0.140670
0.147516
0.164805
0.157818
0.171310
0.170902
0.152583
0.144566
0.130534
0.146432
0.162158
0.153351
0.169757
0.173434
0.166430
0.167756
0.173804
0.177001
0.186750
0.198875
0.181039
0.179102
0.178042
0.184782
0.139772
0.160385
0.142085
0.121575
0.110757
0.126522
0.138588
0.125850
0.112905
0.113759
0.097075
0.097075
0.097303
0.103374
0.128899
0.148301
0.156086
0.157279
0.162953
0.168782
0.172009
0.171806
0.169503
0.167947
0.168028
0.164683
0.161346
0.129962
0.126136
0.126136
0.153634
0.167948
0.166246
0.158457
0.149000
0.129845
0.135767
0.130898
0.150426
0.158879
0.165194
0.169792
0.173290
0.177607
0.177653
0.176116
0.171852
0.169862
0.168403
0.172508
0.174845
0.175643
0.173072
0.177135
0.167520
0.159635
0.143558
0.124667
0.123961
0.123961
0.143171
0.161897
0.165376
0.175700
0.260507
0.177531
0.175092
0.163009
0.179937
0.147220
0.147220
0.154068
0.163799
0.172462
0.164672
0.154711
0.137401
0.145447
0.141822
0.157541
0.164399
0.173438
0.154152
0.135152
0.129800
0.129800
0.145751
0.175348
0.186069
0.177405
0.166244
0.159651
0.155041
0.146066
0.152437
0.106446
0.106446
0.163194
0.160318
0.184503
0.164211
0.111557
0.117664
0.140929
0.161075
0.166260
0.165380
0.165482
0.166626
0.167234
0.168444
0.169784
0.171399
0.173819
0.177697
0.183136
0.188960
0.192532
0.195092
0.196981
0.200030
0.197250
0.193925
0.185598
0.176885
0.169130
0.169130
0.166192
0.167456
0.167414
0.164324
0.159065
0.153152
0.159382
0.164225
0.166341
0.169469
0.169469
0.171984
0.174260
0.174206
0.170352
0.162590
0.147898
0.153095
0.147289
0.161505
0.169604
0.173896
0.175829
0.175141
0.174313
0.173154
0.172232
0.171552
0.170928
0.170395
0.170029
0.169720
0.169462
0.169288
0.169170
0.169066
0.168962
0.168863
0.168772
0.168686
0.168600
0.168521
0.168435
0.168349
0.168259
0.168168
0.168070
0.167968
0.167866
0.167752
0.167833
0.167883
0.168261
0.168475
0.168653
0.168479
0.168056
0.167673
0.167366
0.167174
0.167080
0.167078
0.167138
0.167219
0.167302
0.167466
0.167811
0.168277
0.168734
0.169217
0.169626
0.170220
0.170664
0.170892
0.170432
0.169589
0.168809
0.168284
0.168231
0.168297
0.168537
0.168616
0.168731
0.168712
0.168659
0.168606
0.168564
0.168540
0.168536
0.168547
0.168570
0.168598
0.168628
0.168662
0.168700
0.168738
0.168777
0.168828
0.168885
0.168944
0.168990
0.169026
0.169060
0.169070
0.169012
0.168904
0.168675
0.168964
0.169166
0.169451
0.170086
0.173318
0.174757
0.176572
0.170893
0.161724
0.148094
0.157268
0.162287
0.166705
0.171040
0.169623
0.169943
0.172721
0.172929
0.172929
0.174490
0.174276
0.173670
0.175280
0.176998
0.177788
0.147220
0.151223
0.173881
0.159328
0.159335
0.135981
0.119009
0.119323
0.120582
0.136530
0.158129
0.169783
0.164791
0.140903
0.182537
0.162973
0.161075
0.164283
0.163278
0.163508
0.165543
0.167277
0.168364
0.169747
0.171487
0.173574
0.177719
0.182323
0.187395
0.195374
0.196981
0.165018
0.182095
0.177547
0.167848
0.157969
0.160477
0.145419
0.128470
0.128470
0.130462
0.149492
0.165061
0.122807
0.152333
0.195250
0.189181
0.170185
0.151679
0.157831
0.170298
0.200030
0.191945
0.185909
0.175171
0.166211
0.166192
0.161890
0.165045
0.164743
0.159065
0.141007
0.149026
0.147160
0.156496
0.167032
0.167032
0.169469
0.172201
0.174458
0.176159
0.171780
0.157756
0.129675
0.128829
0.128829
0.156436
0.171297
0.176605
0.176998
0.176410
0.175027
0.173904
0.172981
0.171998
0.171208
0.170684
0.170141
0.169759
0.169575
0.169408
0.169246
0.169153
0.169066
0.168969
0.168889
0.168822
0.168774
0.168729
0.168691
0.168656
0.168617
0.168577
0.168534
0.168494
0.168448
0.168520
0.168433
0.168954
0.169040
0.169742
0.169812
0.169988
0.169987
0.169503
0.169085
0.168769
0.168554
0.168435
0.168397
0.168408
0.168644
0.168962
0.169265
0.169496
0.169897
0.170233
0.170738
0.171000
0.171804
0.172113
0.171650
0.170205
0.169079
0.169079
0.168582
0.168769
0.168788
0.169346
0.169314
0.169458
0.169407
0.169299
0.169196
0.169110
0.169046
0.169005
0.168987
0.168984
0.168992
0.169004
0.169020
0.169037
0.169116
0.169177
0.169243
0.169257
0.169266
0.169268
0.169223
0.169070
0.169088
0.168545
0.168494
0.168675
0.168964
0.169467
0.172389
0.174134
0.176244
0.177839
0.172625
0.147385
0.140818
0.140163
0.157268
0.164336
0.165187
0.170589
0.171912
0.173481
0.175166
0.175309
0.175312
0.173767
0.174500
0.171672
0.177017
0.169762
0.165529
0.152928
0.157969
0.153188
0.154285
0.139024
0.128470
0.139657
0.156995
0.147590
0.157039
0.159141
0.173300
0.193320
0.172836
0.159259
0.140330
0.157256
0.142879
0.150836
0.147016
0.119009
0.153438
0.166826
0.169196
0.199216
0.200737
0.179801
0.179801
0.159422
0.159422
0.158432
0.160328
0.165142
0.153318
0.125398
0.125398
0.127142
0.161002
0.163756
0.170318
0.171068
0.172792
0.175124
0.177784
0.175862
0.159651
0.148966
0.128829
0.147010
0.158648
0.175385
0.178843
0.178585
0.177202
0.175798
0.174534
0.173179
0.172122
0.171386
0.170579
0.170078
0.169744
0.169474
0.169217
0.169170
0.169210
0.169150
0.169101
0.169040
0.168986
0.168941
0.168917
0.168907
0.168908
0.168912
0.168920
0.168930
0.168931
0.168988
0.169149
0.169426
0.169459
0.172324
0.172396
0.171654
0.172064
0.171711
0.171379
0.170802
0.170273
0.169886
0.169640
0.169505
0.169757
0.169903
0.170217
0.170287
0.170772
0.171222
0.171515
0.171928
0.172335
0.172835
0.173734
0.171896
0.169683
0.169683
0.169079
0.170994
0.170901
0.169930
0.169630
0.170211
0.170202
0.170167
0.169997
0.169802
0.169640
0.169516
0.169428
0.169369
0.169336
0.169318
0.169311
0.169308
0.169453
0.169459
0.169559
0.169536
0.169585
0.169565
0.169465
0.169281
0.169365
0.168957
0.168294
0.167988
0.167928
0.168678
0.169032
0.172686
0.174207
0.176579
0.179121
0.177008
0.185777
0.140163
0.140163
0.148658
0.163362
0.173908
0.175474
0.176325
0.175492
0.173937
0.170342
0.163900
0.170060
0.160271
0.159726
0.160432
0.163070
0.166049
0.167947
0.169173
0.168608
0.169654
0.175506
0.177004
0.193784
0.147806
0.174707
0.177324
0.175305
0.172769
0.169792
0.164821
0.149635
0.155466
0.137625
0.136577
0.161162
0.157212
0.175370
0.187972
0.183903
0.182300
0.178867
0.176665
0.176655
0.174687
0.176441
0.176161
0.175797
0.175734
0.176053
0.175615
0.175763
0.175966
0.176854
0.178416
0.179833
0.181101
0.180998
0.176840
0.168682
0.134359
0.135474
0.121057
0.134206
0.174175
0.191926
0.182033
0.180570
0.185398
0.163078
0.158560
0.148730
0.164211
0.152781
0.163262
0.169004
0.174168
0.175145
0.166893
0.129335
0.125132
0.125132
0.139692
0.134272
0.145007
0.136853
0.150121
0.156294
0.166766
0.169828
0.168882
0.161995
0.159756
0.143155
0.140612
0.140612
0.141003
0.157848
0.171483
0.171232
0.147256
0.151838
0.130681
0.134883
0.130913
0.150606
0.168757
0.152730
0.165259
0.148287
0.163132
0.173054
0.181738
0.183432
0.181659
0.180235
0.174771
0.180468
0.181942
0.178754
0.171691
0.178042
0.170684
0.170755
0.168310
0.160339
0.139715
0.116932
0.120614
0.120495
0.141051
0.149234
0.125716
0.118873
0.110757
0.110757
0.129358
0.124283
0.102650
0.100687
0.100687
0.097075
0.131261
0.154967
0.154188
0.154188
0.156746
0.163839
0.167964
0.170631
0.170723
0.170822
0.170847
0.169231
0.153083
0.148823
0.126136
0.143628
0.154195
0.168056
0.161026
0.148012
0.129985
0.112042
0.112042
0.112713
0.130130
0.143736
0.165018
0.173914
0.182554
0.182570
0.178490
0.168462
0.162985
0.166940
0.162884
0.167435
0.170815
0.172914
0.175352
0.183274
0.174911
0.167520
0.157297
0.127474
0.123961
0.159767
0.164104
0.161445
0.172773
0.172632
0.164725
0.144410
0.160550
0.160550
0.177392
0.173446
0.173446
0.169863
0.149864
0.128379
0.125228
0.125228
0.122405
0.128109
0.128109
0.151711
0.192163
0.185261
0.183903
0.180609
0.177324
0.175945
0.176628
0.177477
0.177557
0.178067
0.179532
0.179693
0.180511
0.180364
0.180158
0.181006
0.181490
0.183320
0.184493
0.185194
0.183361
0.188254
0.162966
0.137397
0.162251
0.163184
0.168338
0.170812
0.171528
0.169065
0.162386
0.160135
0.149924
0.132449
0.132449
0.135367
0.152423
0.159668
0.160285
0.173537
0.126581
0.134346
0.117159
0.117159
0.118280
0.133528
0.172294
0.173227
0.163716
0.156066
0.151963
0.145590
0.161596
0.144938
0.140612
0.143406
0.160858
0.171088
0.165220
0.163296
0.163163
0.130601
0.130601
0.164864
0.174842
0.152758
0.130776
0.130776
0.131744
0.148365
0.173097
0.182067
0.179520
0.175693
0.171536
0.167249
0.161055
0.168277
0.173168
0.173989
0.168673
0.164610
0.170684
0.154574
0.172280
0.172332
0.168351
0.168310
0.160339
0.147242
0.116932
0.113986
0.113986
0.124811
0.145449
0.161647
0.156707
0.111787
0.132588
0.133409
0.121666
0.100687
0.115437
0.110656
0.159396
0.164272
0.140628
0.149234
0.136525
0.115781
0.170342
0.159970
0.183776
0.170000
0.161311
0.140287
0.120798
0.122610
0.123080
0.137295
0.144323
0.119214
0.142128
0.169031
0.154384
0.170658
0.141688
0.150819
0.139351
0.144929
0.138966
0.153888
0.139024
0.156995
0.157616
0.156180
0.158398
0.198014
0.200737
0.168052
0.155522
0.152883
0.133909
0.149678
0.160321
0.152347
0.141332
0.125398
0.144989
0.150011
0.168460
0.173638
0.173706
0.172792
0.175436
0.179254
0.177101
0.175438
0.152814
0.176972
0.178967
0.181053
0.179296
0.177525
0.175891
0.174339
0.172960
0.172015
0.171049
0.170370
0.169857
0.169224
0.168978
0.168784
0.168924
0.168996
0.169039
0.169143
0.169137
0.169138
0.169130
0.169117
0.169119
0.169138
0.169176
0.169225
0.169280
0.169378
0.169727
0.169839
0.169881
0.172198
0.173529
0.174456
0.173526
0.174066
0.174052
0.173210
0.172339
0.171596
0.171051
0.170696
0.170826
0.170690
0.171019
0.170972
0.171550
0.172094
0.172460
0.173157
0.173406
0.172545
0.173224
0.173224
0.174964
0.171896
0.169683
0.171700
0.172071
0.172248
0.172023
0.171696
0.170824
0.171137
0.170935
0.170675
0.170380
0.170119
0.169924
0.169779
0.169676
0.169613
0.169584
0.169569
0.169769
0.169697
0.169876
0.169825
0.169967
0.169910
0.169815
0.169676
0.169686
0.169602
0.168735
0.167823
0.166713
0.167115
0.167928
0.170825
0.172229
0.174207
0.174207
0.176734
0.179121
0.178832
0.157886
0.156086
0.158836
0.164364
0.167264
0.169173
0.168608
0.159788
0.165816
0.161400
0.154967
0.146779
0.146779
0.145747
0.156674
0.163145
0.168310
0.172025
0.172750
0.174330
0.169689
0.168013
0.147844
0.169569
0.168114
0.164817
0.145434
0.138473
0.111026
0.140286
0.156283
0.156283
0.166424
0.182065
0.193520
0.180218
0.161471
0.148710
0.156315
0.147990
0.159326
0.171208
0.175206
0.173367
0.181037
0.191441
0.169353
0.157297
0.127474
0.139676
0.155580
0.148269
0.167678
0.166923
0.166158
0.163776
0.151505
0.120798
0.120798
0.121403
0.155390
0.165135
0.153682
0.133051
0.131990
0.128116
0.137059
0.122868
0.119901
0.119901
0.136481
0.159398
0.161487
0.155256
0.143862
0.152412
0.156086
0.155606
0.148269
0.181022
0.173217
0.162126
0.145625
0.142869
0.124899
0.124899
0.126978
0.138861
0.167695
0.176555
0.175397
0.178536
0.180204
0.180355
0.184241
0.192112
0.187072
0.175043
0.164817
0.165317
0.130385
0.111026
0.129644
0.150099
0.169226
0.177340
0.177340
0.173844
0.168595
0.163280
0.129503
0.129503
0.130023
0.162354
0.165399
0.171513
0.172282
0.173186
0.179623
0.156200
0.148004
0.144608
0.160975
0.127188
0.164577
0.151634
0.165613
0.170052
0.156431
0.131164
0.147452
0.158050
0.165153
0.168496
0.173935
0.176839
0.159499
0.143908
0.123007
0.123475
0.121022
0.143340
0.148799
0.135734
0.139852
0.140879
0.152412
0.148323
0.161127
0.167807
0.167214
0.158454
0.144258
0.136777
0.136777
0.172493
0.167646
0.155522
0.151236
0.118923
0.118923
0.127550
0.144614
0.163157
0.145160
0.167855
0.173677
0.176978
0.177147
0.176505
0.175436
0.179018
0.182136
0.184311
0.188869
0.186591
0.183459
0.180910
0.178839
0.176977
0.175357
0.173606
0.172492
0.171458
0.170548
0.169709
0.168945
0.168945
0.168978
0.168784
0.168292
0.168615
0.168887
0.169106
0.169162
0.169242
0.169275
0.169313
0.169342
0.169381
0.169443
0.169532
0.169704
0.170099
0.170332
0.170420
0.170420
0.172327
0.174266
0.176680
0.175728
0.176592
0.175981
0.174539
0.173374
0.172671
0.172000
0.171839
0.171487
0.171809
0.171605
0.172090
0.172531
0.173009
0.173771
0.174207
0.172148
0.161626
0.150044
0.226247
0.159194
0.161331
0.167132
0.169574
0.171805
0.172531
0.173182
0.172872
0.171877
0.172014
0.171829
0.171367
0.170850
0.170487
0.170219
0.169970
0.169836
0.169800
0.169744
0.169900
0.169872
0.170030
0.170070
0.170332
0.170351
0.170340
0.170248
0.169969
0.169778
0.169469
0.168528
0.166169
0.165138
0.166713
0.167115
0.169999
0.171768
0.172229
0.174567
0.177165
0.178495
0.189246
0.194093
0.145511
0.167464
0.160618
0.164313
0.166867
0.166705
0.160135
0.153812
0.136946
0.153812
0.150767
0.136822
0.132449
0.137364
0.150601
0.144245
0.150935
0.155764
0.176781
0.151645
0.125210
0.125235
0.117159
0.121956
0.155519
0.160539
0.164410
0.170237
0.139830
0.143074
0.127594
0.142363
0.142363
0.160858
0.172322
0.147711
0.147711
0.151475
0.130601
0.177593
0.172437
0.131358
0.126902
0.139139
0.126230
0.126230
0.140072
0.148292
0.167473
0.160986
0.166111
0.168853
0.153206
0.160504
0.130693
0.179782
0.190250
0.186697
0.175217
0.181950
0.145061
0.130776
0.137551
0.158831
0.170751
0.174322
0.170979
0.166432
0.164515
0.159837
0.152691
0.137255
0.150230
0.160201
0.167385
0.169585
0.167987
0.155963
0.141739
0.145014
0.148951
0.173826
0.172578
0.169878
0.171196
0.165160
0.148193
0.131434
0.113986
0.137894
0.157634
0.166572
0.174851
0.156706
0.178716
0.121245
0.137825
0.160444
0.165740
0.131616
0.126715
0.126715
0.147418
0.121936
0.151080
0.166688
0.179913
0.179986
0.170385
0.159672
0.156385
0.129286
0.129286
0.150359
0.154807
0.150883
0.143198
0.129503
0.142653
0.151247
0.168895
0.174446
0.167405
0.161805
0.170052
0.157899
0.160597
0.163237
0.155607
0.130170
0.126933
0.109543
0.120231
0.109733
0.131256
0.146065
0.156288
0.162430
0.165620
0.169308
0.171796
0.174540
0.174504
0.154947
0.121549
0.119937
0.145364
0.153977
0.158537
0.152137
0.134298
0.134298
0.165630
0.153803
0.159228
0.165097
0.168637
0.167620
0.157225
0.139176
0.177392
0.173446
0.165861
0.163457
0.142982
0.125228
0.121659
0.119773
0.119773
0.130937
0.171100
0.193557
0.165563
0.172899
0.177090
0.174569
0.174625
0.175739
0.177319
0.178984
0.180957
0.182204
0.184268
0.185582
0.185039
0.184175
0.183538
0.184868
0.185804
0.186291
0.186292
0.185403
0.185403
0.123985
0.152229
0.154557
0.160149
0.159171
0.156126
0.140218
0.132809
0.132809
0.134393
0.136560
0.167095
0.170062
0.164606
0.147039
0.136777
0.147040
0.153810
0.155831
0.148079
0.139734
0.126191
0.118923
0.134208
0.158905
0.175930
0.184095
0.182863
0.182863
0.180976
0.179978
0.178571
0.178272
0.178293
0.181511
0.185359
0.188945
0.185865
0.182426
0.179860
0.177908
0.176143
0.174179
0.172818
0.172818
0.171817
0.170828
0.170073
0.169261
0.168945
0.169951
0.170046
0.168292
0.168292
0.168615
0.168887
0.169162
0.169354
0.169435
0.169501
0.169574
0.169657
0.169762
0.169984
0.170208
0.170691
0.170879
0.170664
0.170664
0.171164
0.174848
0.178872
0.178872
0.179305
0.176670
0.174595
0.173476
0.172983
0.172783
0.172337
0.172534
0.172174
0.172484
0.172789
0.173053
0.173472
0.172644
0.170201
0.166028
0.149677
0.126290
0.132963
0.136088
0.151489
0.160741
0.165806
0.168657
0.170854
0.172731
0.173964
0.173207
0.173275
0.172683
0.171751
0.171242
0.170689
0.170277
0.170048
0.169970
0.169836
0.169817
0.169729
0.169987
0.169999
0.170271
0.170729
0.170885
0.170958
0.170522
0.169763
0.169364
0.168771
0.167729
0.163596
0.165138
0.165138
0.167085
0.169779
0.171713
0.171768
0.174732
0.176620
0.137720
0.123918
0.175889
0.172277
0.166031
0.132296
0.136822
0.150601
0.126978
0.126978
0.133121
0.134031
0.179819
0.151983
0.131358
0.162816
0.163864
0.180676
0.178917
0.169236
0.165153
0.161614
0.145663
0.131344
0.141230
0.129286
0.139522
0.153749
0.154147
0.150043
0.147256
0.168388
0.174258
0.170923
0.163196
0.148811
0.156499
0.144122
0.153797
0.157316
0.163196
0.157671
0.131485
0.129172
0.116167
0.109543
0.134593
0.150090
0.155351
0.162307
0.165620
0.165996
0.167975
0.168811
0.172801
0.177693
0.163144
0.139980
0.119773
0.172929
0.179861
0.149951
0.157430
0.173400
0.172855
0.173731
0.176979
0.178894
0.180704
0.183062
0.185471
0.186665
0.190473
0.183538
0.181140
0.183837
0.184971
0.183886
0.181734
0.183186
0.188359
0.155089
0.163317
0.161901
0.126715
0.149650
0.121936
0.119901
0.154172
0.160152
0.156890
0.147110
0.155058
0.153708
0.156468
0.132809
0.138845
0.170768
0.174171
0.165656
0.165656
0.160173
0.164515
0.161660
0.134798
0.119627
0.120352
0.145311
0.157877
0.165149
0.168534
0.167575
0.164249
0.160881
0.141739
0.141739
0.183265
0.173788
0.168537
0.163920
0.158659
0.166166
0.171284
0.166080
0.158476
0.157634
0.175932
0.171659
0.171849
0.164606
0.147039
0.172011
0.139657
0.124435
0.131098
0.132221
0.158905
0.172300
0.181886
0.186996
0.184976
0.182564
0.179557
0.176471
0.176428
0.175442
0.180269
0.185765
0.188481
0.185147
0.181170
0.181170
0.179199
0.177253
0.175388
0.173462
0.172818
0.172788
0.171507
0.170454
0.169630
0.169352
0.169693
0.169828
0.170263
0.170339
0.168683
0.168683
0.169145
0.169473
0.169628
0.169723
0.169801
0.169901
0.170180
0.170279
0.170734
0.170998
0.170916
0.171184
0.171229
0.170379
0.175715
0.178872
0.185574
0.176636
0.176636
0.172732
0.174595
0.173476
0.172983
0.172999
0.172635
0.172906
0.173082
0.175756
0.175893
0.175308
0.177215
0.172644
0.169143
0.155444
0.125142
0.120323
0.116326
0.118841
0.118841
0.135986
0.150919
0.158481
0.163410
0.167521
0.170972
0.177224
0.175151
0.174248
0.172832
0.172088
0.171322
0.170921
0.170510
0.170277
0.169931
0.169725
0.169516
0.169549
0.169729
0.169987
0.170575
0.171158
0.171622
0.171544
0.170314
0.169375
0.168364
0.167132
0.165372
0.158233
0.163171
0.163171
0.166037
0.169214
0.171690
0.174630
0.174790
0.179080
0.190088
0.163879
0.154066
0.146178
0.159045
0.155136
0.155136
0.149411
0.165938
0.142582
0.129110
0.128730
0.128730
0.150548
0.168388
0.171172
0.164464
0.148965
0.129960
0.127936
0.127936
0.143523
0.157316
0.159894
0.161280
0.164625
0.147884
0.155773
0.116167
0.116167
0.111000
0.118241
0.138473
0.150090
0.155351
0.162307
0.167454
0.170464
0.167498
0.166884
0.164928
0.158124
0.147984
0.178220
0.156758
0.139882
0.119937
0.119937
0.153977
0.160196
0.164665
0.158537
0.152137
0.134298
0.173606
0.159984
0.165054
0.166675
0.161110
0.163151
0.164665
0.168724
0.175243
0.175017
0.171713
0.158466
0.145989
0.145511
0.136983
0.124899
0.126978
0.156806
0.184547
0.186836
0.187986
0.189249
0.189453
0.186801
0.188024
0.183247
0.165630
0.141127
0.141128
0.145888
0.174009
0.163267
0.167540
0.173028
0.166779
0.191616
0.188470
0.182174
0.182451
0.182122
0.173052
0.177998
0.145511
0.149656
0.148459
0.148309
0.142169
0.159780
0.164313
0.164191
0.165393
0.156241
0.125972
0.125972
0.128759
0.148862
0.162758
0.150767
0.158930
0.175317
0.186914
0.172889
0.154621
0.128804
0.176261
0.178680
0.175475
0.155832
0.145540
0.165450
0.167904
0.163257
0.145056
0.145056
0.129724
0.143769
0.154115
0.164444
0.171105
0.193611
0.173176
0.144416
0.152608
0.145454
0.159925
0.150207
0.149901
0.119627
0.118714
0.118714
0.118714
0.137214
0.150386
0.159887
0.166454
0.169766
0.167575
0.165888
0.146353
0.143615
0.169212
0.172986
0.175138
0.166299
0.132066
0.122838
0.122838
0.139139
0.126230
0.189884
0.150387
0.171469
0.173322
0.136434
0.136434
0.139540
0.123088
0.148539
0.180790
0.188901
0.189617
0.186517
0.182008
0.177116
0.172280
0.172969
0.166460
0.177040
0.181045
0.188990
0.188648
0.178847
0.178847
0.179605
0.177927
0.176764
0.176239
0.175173
0.173637
0.171542
0.169630
0.168283
0.167980
0.168313
0.169576
0.170100
0.170488
0.170756
0.169152
0.169152
0.169594
0.169766
0.169876
0.169968
0.170280
0.170335
0.170564
0.170843
0.170422
0.170441
0.169981
0.170245
0.168889
0.159175
0.163073
0.193483
0.186701
0.159208
0.170687
0.172839
0.174057
0.175045
0.175264
0.175410
0.175460
0.177115
0.178026
0.178996
0.180016
0.178634
0.175211
0.165747
0.145631
0.120323
0.168120
0.168120
0.152921
0.136434
0.141117
0.123088
0.147919
0.180790
0.189873
0.195451
0.186505
0.178979
0.170164
0.162419
0.146181
0.160132
0.160132
0.178722
0.191075
0.181193
0.170130
0.170130
0.180513
0.179051
0.178421
0.177730
0.176477
0.174183
0.170987
0.168283
0.164989
0.164903
0.167011
0.168397
0.169431
0.169976
0.170630
0.169117
0.169116
0.169457
0.169766
0.169929
0.170050
0.170086
0.170209
0.170317
0.169954
0.169717
0.168748
0.167907
0.166278
0.161771
0.153938
0.137022
0.163073
0.157651
0.148114
0.164746
0.169834
0.172544
0.174177
0.174850
0.175566
0.176853
0.178102
0.179046
0.178995
0.179782
0.185253
0.182396
0.176608
0.162839
0.143520
0.126062
0.120323
0.178937
0.172257
0.173593
0.148680
0.128847
0.124908
0.124908
0.151295
0.159780
0.160956
0.164882
0.153429
0.139472
0.125972
0.144369
0.149064
0.163461
0.160053
0.167985
0.158655
0.167512
0.146072
0.137115
0.126978
0.133043
0.134031
0.134031
0.143615
0.152272
0.162071
0.172977
0.162435
0.180570
0.150814
0.122838
0.154530
0.168034
0.167886
0.161110
0.148917
0.148783
0.148783
0.166744
0.173825
0.176423
0.170228
0.166173
0.152305
0.144262
0.141128
0.162014
0.140000
0.143923
0.156944
0.174226
0.176843
0.172950
0.176757
0.178570
0.182820
0.178571
0.182720
0.185149
0.174781
0.170382
0.164924
0.145540
0.145540
0.165645
0.162536
0.170494
0.173853
0.177352
0.178563
0.180076
0.176105
0.172417
0.195798
0.149636
0.161281
0.179519
0.181724
0.179954
0.181734
0.181734
0.193949
0.195451
0.197497
0.197497
0.186505
0.162441
0.146331
0.127504
0.132329
0.132329
0.197583
0.160985
0.175541
0.179884
0.179225
0.177918
0.175246
0.170621
0.161220
0.161220
0.160371
0.164132
0.166920
0.168084
0.169453
0.170092
0.169148
0.169116
0.169457
0.169756
0.169731
0.169558
0.169387
0.169317
0.169317
0.168793
0.168036
0.166788
0.165112
0.162461
0.153865
0.138133
0.118262
0.119004
0.136193
0.163009
0.148114
0.148114
0.164746
0.170592
0.172463
0.172887
0.174712
0.175914
0.177067
0.174930
0.176541
0.169117
0.160584
0.199303
0.179404
0.183009
0.183353
0.162508
0.161521
0.116326
0.116326
0.118947
0.143721
0.155321
0.161703
0.166804
0.170972
0.175476
0.175476
0.175592
0.175592
0.173629
0.171471
0.171611
0.171151
0.170749
0.170291
0.170046
0.169473
0.169231
0.169382
0.169549
0.170030
0.170623
0.171826
0.172355
0.172167
0.170740
0.168585
0.168585
0.168364
0.160409
0.156453
0.150576
0.158957
0.163939
0.167809
0.171245
0.173278
0.198752
0.181355
0.174104
0.167862
0.174442
0.173168
0.168595
0.162680
0.136505
0.154256
0.157022
0.124816
0.124816
0.124819
0.145712
0.157652
0.146091
0.119613
0.148058
0.148355
0.129684
0.147837
0.158442
0.165139
0.169870
0.172627
0.171443
0.171358
0.172911
0.172987
0.167950
0.161996
0.157169
0.150560
0.134812
0.149143
0.160655
0.169380
0.169380
0.168985
0.154256
0.132744
0.187309
0.210583
0.192247
0.176555
0.156806
0.190503
0.193651
0.191702
0.188454
0.186435
0.184789
0.179147
0.182930
0.117096
0.136979
0.154705
0.161824
0.166077
0.159781
0.153099
0.230918
0.165444
0.167250
0.170981
0.170605
0.171471
0.171479
0.171081
0.170577
0.169922
0.169223
0.168846
0.169170
0.169382
0.169984
0.171088
0.172442
0.173372
0.173609
0.171796
0.169542
0.168585
0.168816
0.141572
0.140264
0.139726
0.148979
0.159161
0.165923
0.177091
0.179433
0.177300
0.175902
0.166789
0.164849
0.144741
0.124908
0.137581
0.147318
0.159235
0.160956
0.154570
0.165186
0.146164
0.168609
0.175513
0.168180
0.170608
0.164583
0.159033
0.141981
0.154978
0.148079
0.133043
0.141892
0.116494
0.149808
0.150784
0.150784
0.165908
0.170024
0.172195
0.174439
0.171670
0.168458
0.166884
0.160371
0.150503
0.126545
0.139421
0.129673
0.154226
0.157866
0.158613
0.147577
0.147577
0.148783
0.154706
0.164218
0.170031
0.170031
0.168722
0.170228
0.168576
0.144652
0.175838
0.171744
0.157784
0.172950
0.164924
0.148959
0.119698
0.119698
0.113855
0.131237
0.143555
0.143400
0.156345
0.169962
0.141117
0.194865
0.178086
0.160303
0.148648
0.156913
0.157969
0.169686
0.168595
0.162703
0.162435
0.136505
0.132744
0.132744
0.155505
0.155505
0.163709
0.140240
0.129773
0.124816
0.134863
0.176466
0.168857
0.175213
0.133297
0.147523
0.158165
0.163838
0.160063
0.165101
0.163850
0.130594
0.166816
0.199668
0.167858
0.180567
0.168372
0.155269
0.161169
0.154594
0.164283
0.169288
0.174342
0.175602
0.175776
0.173762
0.170562
0.167606
0.168036
0.162492
0.157169
0.132133
0.116297
0.118147
0.142188
0.155256
0.156245
0.164869
0.176371
0.138054
0.137051
0.137051
0.169874
0.172007
0.172738
0.173560
0.175081
0.177200
0.174284
0.169864
0.163860
0.160371
0.150812
0.126545
0.126545
0.128634
0.155284
0.170102
0.199622
0.147577
0.151429
0.146362
0.195787
0.188928
0.184159
0.182040
0.180427
0.178132
0.171655
0.164746
0.156062
0.136383
0.134399
0.134399
0.144567
0.159045
0.162446
0.164773
0.168667
0.169374
0.171124
0.167888
0.132485
0.128730
0.132916
0.158931
0.167059
0.170447
0.165250
0.154577
0.137486
0.127936
0.138187
0.151890
0.157095
0.160157
0.157755
0.160633
0.162148
0.146277
0.139652
0.162536
0.154398
0.161319
0.170780
0.174030
0.175685
0.178093
0.173808
0.160447
0.159187
0.139010
0.141456
0.160620
0.169452
0.179606
0.179954
0.162714
0.169025
0.148646
0.148646
0.135501
0.140481
0.140481
0.153690
0.162060
0.167906
0.167702
0.148560
0.183495
0.180349
0.182289
0.180169
0.174670
0.173663
0.170917
0.162562
0.148315
0.156062
0.139779
0.134399
0.137364
0.153038
0.157937
0.164351
0.168766
0.170990
0.166516
0.158432
0.155769
0.162418
0.157920
0.134795
0.157642
0.175113
0.172707
0.166817
0.154577
0.137486
0.157480
0.159159
0.156297
0.153572
0.151543
0.155260
0.162148
0.166297
0.176386
0.137051
0.130046
0.129375
0.129375
0.134983
0.124711
0.164400
0.157387
0.192073
0.179936
0.179936
0.184556
0.180983
0.175188
0.166870
0.142826
0.154097
0.148170
0.142847
0.151913
0.150710
0.166229
0.177431
0.178166
0.176257
0.176932
0.172324
0.174166
0.163467
0.141368
0.123748
0.123748
0.124017
0.147262
0.171364
0.159517
0.165010
0.170804
0.169576
0.164134
0.166608
0.162168
0.162471
0.167023
0.141502
0.155026
0.163392
0.160700
0.165263
0.169628
0.172815
0.168422
0.165365
0.168940
0.168940
0.174326
0.178234
0.177735
0.174215
0.169957
0.167610
0.167461
0.163414
0.161136
0.147864
0.145375
0.116297
0.116297
0.116333
0.116333
0.133778
0.147651
0.164869
0.180349
0.134584
0.150227
0.162790
0.167744
0.167752
0.152421
0.131653
0.137997
0.144562
0.159913
0.167474
0.170605
0.170605
0.171899
0.171479
0.170958
0.169919
0.168732
0.168216
0.168846
0.169170
0.172510
0.173336
0.173336
0.175169
0.175395
0.173262
0.170088
0.169542
0.171000
0.181749
0.139726
0.139726
0.157784
0.159378
0.177143
0.149747
0.164306
0.171763
0.172323
0.179453
0.156982
0.180124
0.171744
0.122159
0.113385
0.113385
0.143095
0.179458
0.140984
0.175504
0.172859
0.161649
0.152106
0.190268
0.138516
0.155351
0.135569
0.128950
0.148185
0.164630
0.172291
0.175852
0.185116
0.144969
0.129375
0.130422
0.131664
0.126655
0.130810
0.113385
0.166021
0.151968
0.133210
0.144563
0.134733
0.153907
0.164128
0.168661
0.174258
0.178049
0.177131
0.161041
0.155351
0.155351
0.171101
0.161842
0.138516
0.136974
0.136974
0.167854
0.176454
0.179606
0.158743
0.152238
0.168694
0.167893
0.203576
0.171200
0.164796
0.176688
0.166592
0.178464
0.165780
0.136974
0.176581
0.179314
0.180036
0.177725
0.170022
0.155281
0.155281
0.151477
0.160517
0.163587
0.166174
0.168136
0.169396
0.169607
0.169148
0.169671
0.169356
0.169356
0.169731
0.169558
0.169387
0.167561
0.167223
0.165573
0.163389
0.160314
0.159525
0.154572
0.145519
0.116892
0.120172
0.125789
0.125789
0.170937
0.165154
0.168681
0.174564
0.181598
0.175295
0.171115
0.169576
0.169454
0.159420
0.143783
0.162471
0.141379
0.160235
0.157082
0.149113
0.156591
0.159032
0.163351
0.169773
0.175162
0.171593
0.174191
0.174375
0.179513
0.183226
0.172103
0.164966
0.163228
0.163418
0.162466
0.163253
0.158428
0.158569
0.141540
0.117413
0.142051
0.145746
0.132307
0.149998
0.158238
0.166164
0.173330
0.127504
0.127504
0.185917
0.186259
0.130422
0.126655
0.135911
0.126655
0.132101
0.174378
0.169143
0.156238
0.169116
0.168121
0.168689
0.170983
0.169694
0.175305
0.178886
0.178606
0.174396
0.169452
0.162520
0.146488
0.128634
0.143628
0.158279
0.175541
0.143516
0.130926
0.123041
0.123041
0.121896
0.120516
0.120516
0.142089
0.166656
0.167906
0.182193
0.186938
0.191508
0.185016
0.178494
0.171352
0.164798
0.148695
0.154097
0.137721
0.129328
0.128166
0.128166
0.166717
0.173134
0.178088
0.173560
0.166808
0.179697
0.177295
0.176932
0.167201
0.164696
0.153062
0.120029
0.145261
0.162082
0.160382
0.165447
0.166120
0.162331
0.151540
0.129412
0.128268
0.128268
0.137189
0.125192
0.126022
0.126022
0.142803
0.167474
0.167955
0.172144
0.172574
0.172388
0.171108
0.169454
0.167681
0.167651
0.168216
0.169156
0.173443
0.175055
0.177530
0.176069
0.176332
0.171510
0.164666
0.167181
0.163667
0.172255
0.153138
0.133157
0.115344
0.115344
0.117166
0.134611
0.150002
0.169060
0.171495
0.174916
0.177388
0.163863
0.176454
0.150234
0.164772
0.170592
0.172434
0.172816
0.173192
0.175603
0.177291
0.174930
0.173055
0.160279
0.137475
0.146086
0.153640
0.169986
0.179566
0.186475
0.177566
0.172187
0.174058
0.168951
0.162331
0.151540
0.128268
0.150044
0.135021
0.143997
0.136294
0.141124
0.177681
0.177189
0.174670
0.168460
0.162645
0.148203
0.128745
0.138160
0.138160
0.156429
0.162582
0.166793
0.170470
0.169700
0.166281
0.160050
0.154561
0.142331
0.132080
0.161429
0.152731
0.157312
0.161167
0.159095
0.149271
0.163189
0.141222
0.155088
0.153159
0.148704
0.147861
0.146516
0.149063
0.158856
0.158856
0.164150
0.168586
0.157640
0.156656
0.155365
0.124054
0.124054
0.125383
0.155221
0.158329
0.172998
0.174115
0.174424
0.172842
0.171033
0.168224
0.165968
0.165824
0.167651
0.169859
0.171685
0.174479
0.181524
0.181524
0.171454
0.164933
0.153045
0.158958
0.203313
0.170354
0.177813
0.185329
0.189604
0.186404
0.178574
0.175561
0.166631
0.159872
0.143320
0.123609
0.120651
0.147819
0.156701
0.156048
0.150268
0.140561
0.137183
0.149654
0.152927
0.151382
0.162809
0.169157
0.172859
0.179916
0.181843
0.174742
0.167380
0.176417
0.143986
0.155420
0.156734
0.161040
0.154728
0.151159
0.165259
0.165464
0.169664
0.173755
0.178840
0.179271
0.174843
0.141422
0.141365
0.141093
0.149953
0.158422
0.163919
0.167098
0.169517
0.169554
0.169607
0.169331
0.169331
0.169356
0.171228
0.170796
0.170201
0.168302
0.167510
0.167005
0.165573
0.163389
0.157335
0.150737
0.133039
0.116892
0.116976
0.136588
0.167197
0.169340
0.169554
0.170092
0.170092
0.169331
0.171296
0.171657
0.171515
0.171127
0.169951
0.168753
0.167188
0.165820
0.164683
0.162556
0.158360
0.146892
0.132330
0.150045
0.179331
0.125789
0.144472
0.155584
0.174868
0.174358
0.172635
0.173157
0.173048
0.173192
0.175788
0.176793
0.178231
0.173528
0.166670
0.136905
0.133647
0.133647
0.141747
0.134558
0.133031
0.133031
0.151204
0.168513
0.179390
0.181205
0.179070
0.175048
0.171872
0.174659
0.163468
0.120029
0.136970
0.136231
0.122265
0.119415
0.129648
0.187509
0.192367
0.176991
0.188807
0.185625
0.179058
0.171352
0.146671
0.124710
0.124045
0.124045
0.135691
0.128166
0.140713
0.150366
0.174201
0.174564
0.167974
0.159025
0.142415
0.173177
0.173830
0.180248
0.165943
0.163522
0.137551
0.144887
0.114503
0.142877
0.161979
0.163300
0.175465
0.168686
0.173053
0.173068
0.153287
0.149591
0.136776
0.162473
0.188227
0.194284
0.165326
0.166447
0.168121
0.168689
0.167946
0.162661
0.157569
0.139101
0.179663
0.181678
0.178701
0.175298
0.169253
0.159762
0.130032
0.166656
0.177242
0.185329
0.180314
0.158225
0.185905
0.190897
0.183729
0.173702
0.173702
0.163361
0.149331
0.121274
0.121274
0.137352
0.154340
0.158032
0.156048
0.135484
0.115144
0.115144
0.120483
0.133457
0.141888
0.146792
0.145512
0.156556
0.177888
0.179915
0.171848
0.151271
0.154919
0.136815
0.130024
0.146900
0.156734
0.160559
0.152568
0.136580
0.151159
0.139047
0.144684
0.158246
0.162670
0.149005
0.158951
0.159444
0.166665
0.171270
0.137194
0.154919
0.120516
0.133888
0.174437
0.175813
0.173014
0.168460
0.166130
0.155137
0.127480
0.127480
0.136579
0.155368
0.160035
0.164986
0.171028
0.169733
0.165505
0.162293
0.158030
0.154561
0.146778
0.132398
0.115073
0.124410
0.118958
0.143526
0.155145
0.148986
0.131318
0.127642
0.127642
0.147464
0.148982
0.144620
0.145610
0.146516
0.142421
0.137716
0.152966
0.154588
0.160496
0.124054
0.150163
0.169697
0.176223
0.177005
0.175486
0.172433
0.169754
0.165093
0.162732
0.162977
0.165824
0.168361
0.172900
0.161112
0.174894
0.174998
0.165863
0.151298
0.132560
0.151805
0.176516
0.176870
0.175029
0.174358
0.174095
0.172407
0.171814
0.174789
0.175629
0.177351
0.173528
0.160176
0.133647
0.160419
0.181416
0.174719
0.134558
0.133031
0.133914
0.163447
0.172841
0.177227
0.179505
0.182352
0.179195
0.174924
0.172695
0.163501
0.135924
0.135604
0.134555
0.151320
0.151029
0.204594
0.156554
0.146596
0.160274
0.182150
0.187388
0.184394
0.170800
0.162756
0.132896
0.124045
0.137678
0.135691
0.173922
0.178914
0.171448
0.168866
0.159025
0.142415
0.142415
0.148882
0.157991
0.181338
0.130032
0.170828
0.164393
0.168825
0.168908
0.168841
0.167947
0.164280
0.162661
0.157569
0.139101
0.139101
0.172349
0.175467
0.170732
0.159724
0.144493
0.127480
0.144452
0.166409
0.167246
0.171071
0.169087
0.165935
0.162323
0.159564
0.157445
0.155431
0.151969
0.142241
0.135170
0.115073
0.115073
0.118958
0.143526
0.155145
0.148218
0.134446
0.127642
0.135871
0.138593
0.144310
0.138244
0.135142
0.143194
0.136236
0.120803
0.119036
0.119036
0.143750
0.157888
0.114503
0.132618
0.152223
0.173464
0.167716
0.155900
0.149645
0.151444
0.129984
0.126105
0.124077
0.136849
0.149507
0.166287
0.186819
0.166711
0.192119
0.195875
0.189323
0.182048
0.171233
0.156301
0.138003
0.153439
0.162710
0.164672
0.160556
0.149803
0.156581
0.127674
0.115144
0.148122
0.125254
0.125254
0.125349
0.141637
0.171451
0.180551
0.179915
0.151271
0.151271
0.159588
0.137335
0.129466
0.129466
0.151245
0.152791
0.153454
0.135955
0.120916
0.121245
0.121245
0.138209
0.132380
0.133192
0.147866
0.162900
0.165510
0.160314
0.166810
0.135161
0.163447
0.173782
0.175465
0.177435
0.182427
0.180973
0.177533
0.173939
0.163470
0.135924
0.134438
0.134438
0.161486
0.154894
0.165547
0.178307
0.167197
0.171661
0.173631
0.171294
0.170092
0.171898
0.172228
0.172664
0.172635
0.171978
0.171519
0.169979
0.168980
0.168091
0.167381
0.166265
0.162197
0.158508
0.168434
0.140654
0.140654
0.140654
0.166538
0.177569
0.183446
0.181671
0.178356
0.165566
0.134306
0.184395
0.178142
0.171629
0.164041
0.164041
0.150674
0.138869
0.135852
0.135852
0.148461
0.123841
0.142004
0.140119
0.148728
0.148153
0.160399
0.162187
0.167216
0.171461
0.172196
0.172833
0.167672
0.157851
0.187450
0.176103
0.165137
0.176166
0.169974
0.129466
0.151088
0.157990
0.157990
0.146421
0.118290
0.118290
0.119768
0.141647
0.132380
0.145185
0.132380
0.141849
0.152273
0.154659
0.160432
0.167409
0.171734
0.173983
0.172191
0.172191
0.171421
0.173007
0.172960
0.173464
0.173440
0.172630
0.171692
0.170391
0.169903
0.169234
0.168866
0.167113
0.170962
0.171770
0.179433
0.179433
0.179746
0.178848
0.176664
0.174878
0.173197
0.170619
0.169816
0.171242
0.173995
0.170530
0.174017
0.184208
0.178853
0.178083
0.174921
0.169858
0.164967
0.158188
0.156689
0.156699
0.162977
0.171541
0.162676
0.145969
0.145267
0.116561
0.133026
0.146808
0.148218
0.134446
0.174029
0.172361
0.172361
0.164833
0.171134
0.175828
0.182480
0.167403
0.153731
0.134438
0.162791
0.176849
0.170801
0.172588
0.159914
0.172776
0.176557
0.177601
0.170169
0.164364
0.155961
0.143283
0.146124
0.149814
0.156113
0.156355
0.154978
0.142668
0.135852
0.150142
0.150952
0.156158
0.154376
0.167641
0.175884
0.178535
0.181671
0.175704
0.191409
0.167300
0.144157
0.123368
0.120803
0.120803
0.142370
0.148310
0.144358
0.148249
0.138165
0.119036
0.137313
0.145789
0.166409
0.175369
0.171071
0.168150
0.164578
0.160171
0.156569
0.154919
0.148245
0.141991
0.154511
0.155881
0.147137
0.132781
0.123841
0.145151
0.138207
0.124846
0.139031
0.132345
0.150077
0.167997
0.174594
0.167535
0.160454
0.146388
0.159428
0.156985
0.176175
0.191238
0.199736
0.190701
0.182187
0.168354
0.162997
0.140805
0.171420
0.171538
0.171629
0.173832
0.174743
0.174242
0.172532
0.170282
0.168713
0.169324
0.170028
0.169974
0.169974
0.174169
0.179581
0.182795
0.181754
0.179447
0.176923
0.173987
0.171114
0.166374
0.169282
0.167455
0.170029
0.165911
0.155530
0.174017
0.158024
0.167971
0.140240
0.158319
0.154256
0.174614
0.176873
0.166574
0.154911
0.162710
0.151561
0.172766
0.193501
0.159109
0.168390
0.152525
0.170541
0.175656
0.151545
0.161648
0.166707
0.157990
0.143234
0.118290
0.143266
0.172925
0.163996
0.159396
0.143130
0.144146
0.149159
0.157829
0.182899
0.158765
0.161912
0.164678
0.165340
0.156581
0.145342
0.153205
0.121774
0.134925
0.125254
0.131408
0.168867
0.178030
0.207295
0.180551
0.151942
0.132478
0.150952
0.162005
0.155832
0.155832
0.165236
0.166864
0.182795
0.179427
0.163303
0.160764
0.156459
0.166796
0.159754
0.148787
0.130856
0.130856
0.131797
0.153491
0.173457
0.203378
0.193567
0.194777
0.146229
0.156120
0.165828
0.160436
0.160436
0.136841
0.120803
0.133490
0.140929
0.155302
0.160086
0.162622
0.165586
0.163230
0.153060
0.166088
0.176849
0.178260
0.144806
0.143679
0.142572
0.162175
0.176557
0.177080
0.171356
0.149539
0.136130
0.134411
0.124869
0.170325
0.169101
0.169076
0.170679
0.173777
0.174716
0.172854
0.165888
0.165888
0.166942
0.169509
0.170946
0.173257
0.175658
0.180589
0.184070
0.182806
0.180377
0.175904
0.171071
0.166210
0.165317
0.162512
0.166606
0.167455
0.155772
0.139367
0.140251
0.140251
0.153025
0.160387
0.139199
0.121241
0.126724
0.126281
0.148746
0.175143
0.154877
0.135401
0.132409
0.132409
0.158643
0.172224
0.150931
0.150931
0.159891
0.164281
0.171574
0.168150
0.157299
0.152359
0.145628
0.131907
0.137143
0.133771
0.151472
0.159341
0.159420
0.155620
0.145170
0.111654
0.111717
0.111717
0.178163
0.161936
0.184161
0.185440
0.175276
0.169442
0.159396
0.146197
0.144146
0.151152
0.247455
0.166749
0.167633
0.162992
0.163235
0.164743
0.168522
0.173532
0.161880
0.161880
0.160147
0.165149
0.169417
0.177405
0.177406
0.182538
0.184777
0.184100
0.180115
0.173096
0.166407
0.157977
0.160477
0.156743
0.163015
0.163042
0.155544
0.133835
0.133835
0.137550
0.179278
0.169661
0.160387
0.164414
0.163155
0.165464
0.173504
0.148819
0.132409
0.140458
0.148770
0.154716
0.139868
0.159273
0.168052
0.162523
0.150931
0.161509
0.169334
0.178217
0.161238
0.136841
0.156556
0.159592
0.135730
0.162110
0.193705
0.202857
0.188932
0.183600
0.210812
0.155649
0.183501
0.166463
0.117198
0.113507
0.136465
0.138180
0.141982
0.159825
0.182795
0.180063
0.161006
0.156459
0.156459
0.161097
0.161275
0.155477
0.138389
0.130856
0.136768
0.153491
0.156175
0.177834
0.170613
0.162952
0.193565
0.178137
0.152509
0.169904
0.163404
0.163404
0.155008
0.132060
0.116080
0.113381
0.113381
0.130975
0.145417
0.160396
0.163597
0.163397
0.111654
0.163628
0.185439
0.192539
0.149104
0.142389
0.142389
0.162813
0.166212
0.149119
0.171612
0.192539
0.169506
0.173990
0.161506
0.175310
0.167329
0.171076
0.160234
0.149985
0.172277
0.188899
0.188996
0.177330
0.173219
0.160523
0.179939
0.159729
0.146159
0.162992
0.140320
0.148346
0.151666
0.165250
0.176409
0.148093
0.147431
0.147431
0.169417
0.175047
0.175047
0.180042
0.185877
0.187441
0.186245
0.178846
0.178846
0.154805
0.139838
0.149500
0.138917
0.152589
0.170552
0.155544
0.165647
0.137527
0.147607
0.138314
0.138529
0.133279
0.157960
0.177815
0.146809
0.137867
0.124984
0.141652
0.131341
0.160206
0.185959
0.126236
0.121241
0.147848
0.168163
0.158258
0.145435
0.169506
0.167057
0.184236
0.142389
0.161266
0.145282
0.141128
0.138180
0.138180
0.190320
0.147485
0.131124
0.132271
0.158665
0.180063
0.130694
0.124373
0.139283
0.135014
0.129952
0.129952
0.136871
0.159389
0.144434
0.143411
0.113381
0.154732
0.157908
0.162392
0.165674
0.172105
0.173954
0.171549
0.124263
0.124263
0.141527
0.129952
0.143724
0.124263
0.179715
0.167233
0.143455
0.155528
0.127437
0.130809
0.147431
0.147597
0.154942
0.172668
0.180939
0.182648
0.187172
0.187663
0.162399
0.200680
0.166968
0.138100
0.122375
0.119663
0.119663
0.135249
0.166630
0.133835
0.183829
0.169511
0.150747
0.145451
0.145992
0.122978
0.119209
0.119209
0.139713
0.160327
0.171584
0.121763
0.126293
0.150634
0.172527
0.172203
0.172203
0.166370
0.146159
0.146159
0.146608
0.166533
0.119663
0.122745
0.153407
0.159380
0.152761
0.152761
0.153217
0.161830
0.172983
0.163230
0.170033
0.179710
0.169367
0.175616
0.167386
0.146809
0.132749
0.124984
0.124984
0.130719
0.167877
0.167994
0.166266
0.185224
0.149532
0.159455
0.139158
0.115778
0.139061
0.168495
0.180216
0.180255
0.177440
0.186898
0.193389
0.161794
0.138710
0.127437
0.128631
0.135041
0.122947
0.120538
0.145838
0.146209
0.166859
0.169741
0.160123
0.172431
0.180216
0.171703
0.153061
0.187862
0.181839
0.151861
0.140769
0.171956
0.185690
0.173323
0.160299
0.152761
0.189405
0.176879
0.152903
0.151209
0.145838
0.157116
0.145838
0.111557
0.119009
0.119214
0.145658
0.152563
0.111204
0.111026
0.109543
0.109733
0.123088
0.136051
0.116892
0.122663
0.120029
0.119415
0.119415
0.139952
0.144489
0.115490
0.114503
0.117595
0.121774
0.128114
0.123841
0.111654
0.121241
0.126236
0.164437
0.168728
0.115778
0.118257
0.119209
0.124656
0.179205
0.189043
0.127437
0.129211
0.147711
0.120651
0.120651
0.126241
0.158812
0.161902
0.173731
0.179633
0.168509
0.167853
0.170380
0.171727
0.171272
0.169761
0.169315
0.169119
0.169119
0.169620
0.171730
0.175342
0.179203
0.180412
0.176737
0.173328
0.170259
0.167420
0.164898
0.164898
0.169069
0.172639
0.177306
0.182902
0.189450
0.192000
0.191731
0.174467
0.171751
0.168983
0.166395
0.164419
0.164419
0.167264
0.169587
0.172293
0.174736
0.175303
0.173664
0.172103
0.171212
0.170719
0.170507
0.170507
0.170677
0.170939
0.171053
0.171479
0.171481
0.170896
0.170896
0.171874
0.172497
0.173480
0.174591
0.177185
0.180842
0.180009
0.183939
0.141128
0.141129
0.173177
0.173177
0.178379
0.189751
0.183991
0.177516
0.171660
0.171660
0.175823
0.176156
0.176156
0.177385
0.174413
0.169541
0.169541
0.175845
0.182060
0.186703
0.188648
0.188160
0.186274
0.183706
0.181144
0.184820
0.187700
0.189555
0.188179
0.184795
0.175322
0.160219
0.128302
0.138183
0.126330
0.137880
0.160876
0.151833
0.117908
0.169239
0.177895
0.172508
0.171316
0.171316
0.177404
0.177404
0.184164
0.181805
0.128537
0.117576
0.117576
0.176905
0.165652
0.183775
0.170637
0.182512
0.186597
0.184875
0.173602
0.155814
0.156567
0.154503
0.150705
0.186930
0.176652
0.187221
0.123263
0.123263
0.130926
0.191564
0.188075
0.180324
0.180324
0.182260
0.184165
0.180156
0.179321
0.163628
0.156291
0.164799
0.171164
0.149048
0.149048
0.190492
0.190492
0.191008
0.178165
0.165048
0.162670
0.170267
0.170267
0.179836
0.179836
0.189013
0.173876
0.173876
0.161388
0.161388
0.177220
0.173876
0.189013
0.201598
0.179836
0.161840
0.147954
0.151520
0.146047
0.161928
0.152348
0.149048
0.159075
0.159968
0.138046
0.155367
0.156291
0.156291
0.179321
0.179627
0.179129
0.176842
0.176842
0.181671
0.187218
0.172509
0.154255
0.123263
0.145474
0.176701
0.154377
0.125626
0.125626
0.134732
0.146673
0.155814
0.167161
0.176832
0.178368
0.172531
0.158139
0.140821
0.153170
0.159871
0.133648
0.117576
0.140282
0.165204
0.180822
0.178200
0.173038
0.173038
0.171316
0.172508
0.175495
0.169842
0.168667
0.125485
0.117908
0.138904
0.167488
0.167488
0.178704
0.175927
0.174111
0.172762
0.171699
0.170770
0.170111
0.167834
0.168060
0.168061
0.169093
0.171857
0.177866
0.182430
0.199450
0.190107
0.207295
0.192644
0.176722
0.174635
0.171289
0.168992
0.166853
0.167974
0.171056
0.172164
0.167074
0.163498
0.164952
0.171802
0.174387
0.108462
0.116254
0.141699
0.166388
0.166150
0.162835
0.162835
0.167300
0.169643
0.169643
0.169435
0.168990
0.169119
0.169620
0.171730
0.175342
0.179203
0.181117
0.177360
0.174686
0.172393
0.170250
0.167420
0.164898
0.166010
0.169069
0.172639
0.175629
0.177433
0.178818
0.192000
0.163051
0.165009
0.166720
0.168904
0.166395
0.164419
0.165397
0.166657
0.169007
0.170617
0.173226
0.176213
0.175303
0.173664
0.172103
0.171212
0.170719
0.170507
0.170677
0.170939
0.170939
0.171053
0.170673
0.170673
0.171330
0.171925
0.171358
0.170998
0.174474
0.178114
0.170125
0.170125
0.176262
0.193114
0.117908
0.132933
0.127387
0.122518
0.122518
0.128302
0.129476
0.160017
0.179266
0.182964
0.183025
0.181446
0.175284
0.173404
0.175063
0.182948
0.186165
0.187620
0.186443
0.182060
0.175845
0.169541
0.177896
0.174413
0.178304
0.177385
0.175691
0.173747
0.171376
0.169813
0.175259
0.180346
0.177693
0.177693
0.173177
0.208316
0.193243
0.189719
0.195370
0.160280
0.147339
0.125060
0.125060
0.127335
0.145722
0.152348
0.186038
0.176812
0.141167
0.138488
0.164454
0.159968
0.124950
0.124950
0.133728
0.170829
0.174875
0.193156
0.178283
0.169592
0.175484
0.177809
0.181222
0.183729
0.182726
0.165651
0.185149
0.165530
0.133906
0.125626
0.132124
0.170072
0.160812
0.170239
0.170662
0.171843
0.162458
0.140625
0.120880
0.125525
0.128971
0.157584
0.174642
0.174348
0.177265
0.177165
0.175512
0.174561
0.174621
0.169038
0.152673
0.163138
0.167685
0.164922
0.156850
0.139831
0.146699
0.162765
0.122960
0.122518
0.132266
0.149053
0.152576
0.152218
0.160930
0.169469
0.168990
0.168827
0.168827
0.170699
0.173515
0.177890
0.182370
0.187494
0.174021
0.174021
0.174414
0.172607
0.170831
0.167924
0.169358
0.171868
0.174722
0.177456
0.172225
0.159001
0.162233
0.157677
0.144488
0.163324
0.166761
0.165627
0.165397
0.167197
0.168968
0.170748
0.172393
0.174260
0.178513
0.178766
0.175962
0.174000
0.173012
0.172074
0.171968
0.171734
0.171381
0.171274
0.170193
0.170193
0.171314
0.171925
0.171358
0.170089
0.170114
0.172672
0.177340
0.152871
0.152871
0.153723
0.176220
0.140904
0.152577
0.129512
0.166422
0.175210
0.180600
0.181446
0.175284
0.166933
0.148442
0.163988
0.176527
0.181748
0.184741
0.187029
0.184582
0.181832
0.179724
0.186870
0.183477
0.179929
0.177519
0.173262
0.168532
0.169526
0.163179
0.168591
0.172983
0.174953
0.172702
0.180468
0.172743
0.178568
0.178285
0.166933
0.130212
0.130212
0.141679
0.162152
0.173538
0.182784
0.186268
0.186547
0.184723
0.183617
0.182357
0.176561
0.182059
0.173520
0.166705
0.159655
0.163179
0.154721
0.159779
0.167239
0.172702
0.172702
0.168976
0.180468
0.160150
0.175617
0.170104
0.168992
0.165349
0.160992
0.163431
0.169253
0.170389
0.160801
0.151412
0.157644
0.147503
0.163589
0.148222
0.148222
0.178736
0.175847
0.174186
0.172992
0.171954
0.171700
0.171025
0.170329
0.168061
0.168097
0.167747
0.171279
0.171279
0.185625
0.119798
0.119798
0.156163
0.162132
0.170666
0.150232
0.133011
0.124950
0.140982
0.151445
0.196601
0.175844
0.163112
0.159071
0.168537
0.173192
0.176116
0.177326
0.177072
0.182726
0.175011
0.165530
0.132124
0.170072
0.166159
0.166369
0.162803
0.155724
0.147839
0.120553
0.120553
0.124505
0.161899
0.169442
0.172447
0.173125
0.177265
0.177165
0.176312
0.170767
0.147610
0.128831
0.127932
0.163138
0.167685
0.169018
0.168275
0.164336
0.155070
0.167738
0.166422
0.178283
0.166265
0.148222
0.189275
0.175653
0.172882
0.168360
0.171779
0.170017
0.171808
0.171573
0.170912
0.170263
0.168259
0.164144
0.157069
0.169545
0.163814
0.177735
0.177902
0.180642
0.182165
0.178895
0.177235
0.168286
0.141769
0.147715
0.143466
0.119798
0.129298
0.128868
0.128868
0.151192
0.169394
0.166907
0.168780
0.168451
0.169038
0.172020
0.175951
0.183038
0.189175
0.187681
0.170129
0.170226
0.175560
0.173190
0.171194
0.172517
0.174039
0.175747
0.172237
0.159053
0.139062
0.138686
0.138686
0.157218
0.145561
0.122089
0.122089
0.127008
0.144488
0.153819
0.165627
0.167016
0.169483
0.171931
0.173553
0.174432
0.174432
0.180212
0.179140
0.175428
0.174718
0.171609
0.170573
0.172055
0.172115
0.171863
0.171809
0.170193
0.170981
0.172180
0.172437
0.170089
0.167434
0.165156
0.159225
0.171543
0.166787
0.174910
0.175130
0.158695
0.148527
0.130212
0.148284
0.166242
0.182784
0.186268
0.188122
0.188212
0.184723
0.181461
0.164559
0.182357
0.173097
0.165589
0.165589
0.151869
0.140549
0.150937
0.149271
0.159924
0.167606
0.168515
0.151464
0.144271
0.144271
0.170417
0.168562
0.165349
0.160992
0.160992
0.153430
0.161626
0.166138
0.150321
0.129159
0.129159
0.167774
0.150523
0.144392
0.194175
0.166561
0.176559
0.155686
0.155991
0.151298
0.145407
0.158182
0.149358
0.156865
0.167885
0.172772
0.170115
0.174124
0.168568
0.163716
0.177106
0.166520
0.173968
0.133781
0.149327
0.131985
0.152346
0.157771
0.154045
0.140592
0.125823
0.140289
0.128958
0.149028
0.161245
0.168180
0.170115
0.169660
0.161928
0.144783
0.163716
0.152255
0.165728
0.166159
0.166159
0.164423
0.152848
0.137648
0.120553
0.137483
0.159323
0.166618
0.174403
0.175957
0.178848
0.179205
0.180552
0.166866
0.127932
0.127932
0.145736
0.164762
0.169928
0.169839
0.169845
0.168970
0.164336
0.166787
0.155469
0.171180
0.128868
0.164633
0.166374
0.158550
0.163545
0.168954
0.167614
0.171861
0.152916
0.168130
0.170129
0.148053
0.165994
0.173703
0.175688
0.174003
0.176402
0.175273
0.175348
0.172245
0.162300
0.146757
0.138685
0.144289
0.151255
0.164352
0.156365
0.152897
0.125629
0.122089
0.123418
0.153819
0.165224
0.166826
0.170537
0.173263
0.175207
0.174054
0.163524
0.159456
0.245385
0.172008
0.177617
0.169865
0.169994
0.169322
0.171924
0.172055
0.172577
0.172049
0.170981
0.171133
0.173097
0.173432
0.170704
0.148825
0.144598
0.142973
0.157580
0.134614
0.132249
0.170666
0.183339
0.166556
0.167401
0.170434
0.168487
0.168487
0.170930
0.168732
0.166575
0.163742
0.158913
0.140384
0.151774
0.140437
0.157745
0.164055
0.171017
0.180516
0.171581
0.172515
0.172818
0.170698
0.145780
0.132249
0.132249
0.138417
0.171840
0.175869
0.176082
0.148284
0.166242
0.187721
0.190063
0.191133
0.190373
0.187003
0.160414
0.142669
0.140226
0.136336
0.148370
0.149795
0.149795
0.151869
0.141082
0.125753
0.125753
0.128154
0.164531
0.168222
0.162405
0.151390
0.144271
0.152047
0.158083
0.167581
0.163700
0.155305
0.145566
0.150781
0.145622
0.161730
0.182719
0.140751
0.158676
0.183851
0.142056
0.153223
0.146298
0.158101
0.163545
0.164001
0.161970
0.152916
0.152916
0.187077
0.164515
0.133542
0.133542
0.133550
0.151737
0.165135
0.171737
0.176402
0.178894
0.177943
0.177689
0.175348
0.162300
0.146757
0.162220
0.150419
0.161085
0.167825
0.163525
0.149829
0.123419
0.151390
0.166930
0.155470
0.160480
0.144667
0.125893
0.125433
0.125433
0.143906
0.158092
0.166582
0.166015
0.168776
0.171410
0.171538
0.171227
0.170011
0.167324
0.142973
0.145344
0.165146
0.165146
0.167302
0.169569
0.166713
0.164430
0.151717
0.140349
0.123376
0.119811
0.119811
0.139304
0.164055
0.168275
0.165606
0.171581
0.166646
0.170051
0.173093
0.178744
0.182127
0.199126
0.178691
0.171744
0.142614
0.133337
0.109393
0.112335
0.112757
0.133249
0.143936
0.153542
0.157189
0.150140
0.125782
0.110167
0.110276
0.111046
0.129109
0.166025
0.160522
0.145019
0.127644
0.128309
0.130756
0.151369
0.162838
0.167259
0.164423
0.160068
0.149761
0.150027
0.165224
0.172632
0.174977
0.176280
0.176123
0.173372
0.158912
0.133918
0.149871
0.172008
0.158505
0.162175
0.166566
0.167233
0.169811
0.172019
0.173112
0.173112
0.171133
0.173097
0.173643
0.174630
0.158743
0.186308
0.142973
0.166618
0.171630
0.171630
0.176854
0.181180
0.183930
0.184834
0.177455
0.166818
0.166478
0.160520
0.160449
0.163185
0.167850
0.171845
0.173140
0.173342
0.172747
0.173248
0.179606
0.146455
0.152406
0.172386
0.166713
0.163218
0.161651
0.151635
0.122485
0.119811
0.121976
0.146019
0.159932
0.165068
0.159646
0.158815
0.162074
0.166749
0.170941
0.174201
0.178134
0.189381
0.181361
0.196070
0.195423
0.194675
0.195119
0.195052
0.194253
0.187003
0.193842
0.144720
0.136336
0.136336
0.160037
0.172200
0.161175
0.149795
0.177459
0.127067
0.127067
0.146658
0.159337
0.153685
0.163810
0.161095
0.133866
0.141660
0.133509
0.148975
0.169230
0.185274
0.198685
0.193559
0.192818
0.186545
0.170917
0.133805
0.130190
0.130190
0.157315
0.171737
0.176577
0.183382
0.182265
0.178122
0.176493
0.167873
0.159701
0.153225
0.140147
0.150419
0.142169
0.154097
0.159307
0.167027
0.177282
0.178960
0.141080
0.165385
0.172205
0.155575
0.170100
0.170100
0.173489
0.154651
0.127163
0.153815
0.164655
0.144865
0.127163
0.129819
0.134003
0.125753
0.141318
0.147877
0.172665
0.162405
0.179809
0.175985
0.177560
0.175776
0.172014
0.164126
0.155864
0.132160
0.132160
0.156424
0.145763
0.156877
0.140959
0.156069
0.162387
0.167233
0.169101
0.172818
0.174148
0.173976
0.171688
0.172711
0.173281
0.158970
0.153196
0.146455
0.163353
0.167648
0.172420
0.177902
0.183294
0.184919
0.180671
0.172359
0.165705
0.159782
0.149801
0.152676
0.158215
0.162222
0.162622
0.170281
0.174004
0.174946
0.174981
0.176554
0.185390
0.180244
0.181480
0.180523
0.165348
0.137563
0.137511
0.151081
0.179607
0.138227
0.127163
0.138840
0.136032
0.172328
0.186959
0.196471
0.178109
0.155702
0.134787
0.142157
0.145069
0.109393
0.137535
0.153542
0.160629
0.161806
0.159429
0.152940
0.139804
0.129827
0.105854
0.105854
0.168568
0.158610
0.152216
0.122711
0.122711
0.122957
0.149538
0.160193
0.164592
0.166758
0.165415
0.150765
0.146455
0.169375
0.165712
0.161651
0.146297
0.122485
0.144833
0.121004
0.137872
0.152069
0.182166
0.178302
0.176280
0.172862
0.143196
0.137234
0.154908
0.130190
0.171122
0.174833
0.159548
0.183660
0.172058
0.163460
0.156412
0.145861
0.153147
0.122955
0.122955
0.123832
0.139264
0.162250
0.160596
0.164699
0.169100
0.161979
0.184588
0.167388
0.177087
0.178311
0.176602
0.173342
0.168750
0.149589
0.132160
0.150042
0.171244
0.174909
0.162036
0.136781
0.145730
0.147859
0.151159
0.145586
0.136585
0.178675
0.185486
0.169639
0.136781
0.136781
0.192495
0.185672
0.170937
0.146263
0.156424
0.125538
0.124585
0.124585
0.139874
0.162387
0.163662
0.169826
0.173872
0.176036
0.173130
0.166048
0.168191
0.174209
0.190665
0.155969
0.152502
0.161916
0.166749
0.170255
0.171626
0.179124
0.185762
0.188390
0.189353
0.189211
0.190784
0.194727
0.199441
0.164952
0.138227
0.165341
0.133509
0.133509
0.122711
0.143737
0.164592
0.169224
0.169255
0.192231
0.173296
0.180305
0.184809
0.182791
0.176471
0.165408
0.156286
0.142101
0.130827
0.141476
0.152676
0.158215
0.159928
0.148042
0.160397
0.164763
0.175892
0.176812
0.178001
0.181774
0.175568
0.171210
0.164030
0.168996
0.173115
0.123938
0.122673
0.123938
0.193014
0.110096
0.122757
0.145763
0.163563
0.170737
0.174478
0.167775
0.159429
0.159199
0.149961
0.122802
0.105854
0.128039
0.122955
0.133336
0.152677
0.153656
0.164244
0.163396
0.166686
0.170739
0.169100
0.145919
0.145919
0.148268
0.165067
0.178525
0.178311
0.176602
0.172257
0.167418
0.148437
0.153772
0.144532
0.131341
0.127551
0.128197
0.153749
0.163376
0.166704
0.165334
0.171245
0.170318
0.171323
0.172430
0.165865
0.155915
0.145919
0.158854
0.178155
0.180397
0.180312
0.175641
0.170225
0.162363
0.148527
0.121020
0.126375
0.116982
0.137338
0.160007
0.124585
0.152272
0.165842
0.172375
0.175872
0.172306
0.168118
0.150085
0.159792
0.168191
0.171792
0.125900
0.163922
0.173508
0.178782
0.181286
0.181135
0.178636
0.172545
0.166346
0.159199
0.159836
0.148494
0.133388
0.115403
0.106770
0.173256
0.178963
0.184446
0.182304
0.176498
0.171003
0.173231
0.179339
0.179946
0.176122
0.171922
0.174585
0.166813
0.159836
0.148494
0.168837
0.173358
0.171694
0.142261
0.136145
0.147184
0.156331
0.161916
0.167944
0.170232
0.164580
0.170679
0.185584
0.183796
0.187818
0.182718
0.176418
0.166169
0.143130
0.118580
0.117436
0.117436
0.131270
0.155481
0.148302
0.130328
0.129587
0.151685
0.164763
0.165817
0.178466
0.179749
0.181774
0.186043
0.188891
0.189211
0.189793
0.195234
0.196544
0.200087
0.194751
0.167949
0.160898
0.161698
0.169359
0.151722
0.161830
0.160018
0.173240
0.159796
0.181209
0.182151
0.182751
0.169754
0.161992
0.149040
0.142432
0.120265
0.116982
0.116982
0.135146
0.139709
0.152198
0.152040
0.150531
0.138533
0.138926
0.138926
0.141224
0.114049
0.110483
0.104658
0.123576
0.135953
0.151777
0.161422
0.165618
0.162779
0.151963
0.133551
0.148329
0.161523
0.148833
0.158986
0.156849
0.173115
0.188051
0.194513
0.190365
0.185853
0.176418
0.166169
0.174812
0.130475
0.117436
0.122826
0.145878
0.152778
0.153045
0.140878
0.129587
0.144013
0.129587
0.142833
0.151685
0.160989
0.179192
0.186249
0.186043
0.140435
0.133950
0.134427
0.121535
0.164438
0.171176
0.175570
0.174292
0.167036
0.145313
0.138533
0.188684
0.203535
0.185652
0.182329
0.189793
0.194269
0.190187
0.185224
0.177380
0.146894
0.159274
0.137563
0.138533
0.152010
0.151355
0.112319
0.104658
0.104658
0.125226
0.125226
0.150227
0.162929
0.167597
0.167964
0.161120
0.148089
0.124055
0.124055
0.127229
0.133664
0.133664
0.134153
0.120826
0.120826
0.131742
0.156302
0.168370
0.168370
0.168283
0.155621
0.150722
0.167321
0.169000
0.171320
0.171320
0.175971
0.118163
0.129319
0.136609
0.165504
0.167925
0.171446
0.169611
0.162954
0.131687
0.193116
0.169656
0.179411
0.179820
0.164668
0.125069
0.152549
0.159949
0.153045
0.140878
0.171921
0.156885
0.142459
0.127760
0.130771
0.129049
0.159741
0.178359
0.132554
0.156996
0.185022
0.177494
0.177494
0.190809
0.182571
0.170717
0.133664
0.167956
0.116146
0.106335
0.169491
0.167964
0.169248
0.155379
0.148057
0.139188
0.129349
0.141580
0.120826
0.141470
0.160916
0.175282
0.184143
0.155621
0.128561
0.146746
0.168431
0.168266
0.155614
0.184026
0.181179
0.193248
0.190851
0.183093
0.168839
0.151674
0.151674
0.131765
0.167412
0.139815
0.124594
0.133152
0.133603
0.168461
0.117607
0.121216
0.172102
0.161209
0.170492
0.160905
0.172664
0.176058
0.179838
0.180696
0.176132
0.176132
0.162520
0.206057
0.161536
0.168902
0.176978
0.183669
0.176695
0.159757
0.158859
0.158859
0.183396
0.171495
0.156960
0.132554
0.158243
0.172102
0.154968
0.144671
0.157530
0.151036
0.161840
0.172664
0.175161
0.178121
0.180362
0.182053
0.182938
0.172843
0.153763
0.153763
0.144181
0.122597
0.122597
0.143889
0.145309
0.145010
0.129668
0.129668
0.131274
0.163060
0.171548
0.175273
0.180362
0.182093
0.170593
0.153763
0.182938
0.187911
0.170181
0.160563
0.140627
0.152136
0.151291
0.127760
0.129049
0.158859
0.156885
0.127760
0.149640
0.135516
0.154992
0.173039
0.172910
0.144910
0.139917
0.181037
0.144342
0.139917
0.139260
0.129668
0.146229
0.154385
0.169339
0.157041
0.135516
0.135516
0.139917
0.192678
0.224981
0.148895
0.161345
0.147062
0.153869
0.147921
0.125433
0.164878
0.200194
0.109393
0.110096
0.167995
0.187056
0.174081
0.136932
0.124055
0.156073
0.124988
0.122597
0.160483
0.123564
0.126982
0.124988
0.000000
0.000000
0.000000
0.000000
0.000000
0.000000
0.000000
0.000000
0.000000
0.000000
0.000000
0.000000
0.000000
0.000000
0.000000
0.000000
0.000000
0.000000
0.000000
0.000000
0.000000
0.000000
0.000000
0.000000
0.000000
0.000000
0.000000
0.000000
0.000000
0.000000
0.000000
0.000000
0.000000
0.000000
0.000000
0.000000
0.000000
0.000000
0.000000
0.000000
0.000000
0.000000
0.000000
0.000000
0.000000
0.000000
0.000000
0.000000
0.000000
0.000000
0.000000
0.000000
0.000000
0.000000
0.000000
0.000000
0.000000
0.000000
0.000000
0.000000
0.000000
0.000000
0.000000
0.000000
0.000000
0.000000
0.000000
0.000000
0.000000
0.000000
0.000000
0.000000
0.000000
0.000000
0.000000
0.000000
0.000000
0.000000
0.000000
0.000000
0.000000
0.000000
0.000000
0.000000
0.000000
0.000000
0.000000
0.000000
0.000000
0.000000
0.000000
0.000000
0.000000
0.000000
0.000000
0.000000
0.000000
0.000000
0.000000
0.000000
0.000000
0.000000
0.000000
0.000000
0.000000
0.000000
0.000000
0.000000
0.000000
0.000000
0.000000
0.000000
0.000000
0.000000
0.000000
0.000000
0.000000
0.000000
0.000000
0.000000
0.000000
0.000000
0.000000
0.000000
0.000000
0.000000
0.000000
0.000000
0.000000
0.000000
0.000000
0.000000
0.000000
0.000000
0.000000
0.000000
0.000000
0.000000
0.000000
0.000000
0.000000
0.000000
0.000000
0.000000
0.000000
0.000000
0.000000
0.000000
0.000000
0.000000
0.000000
0.000000
0.000000
0.000000
0.000000
0.000000
0.000000
0.000000
0.000000
0.000000
0.000000
0.000000
0.000000
0.000000
0.000000
0.000000
0.000000
0.000000
0.000000
0.000000
0.000000
0.000000
0.000000
0.000000
0.000000
0.000000
0.000000
0.000000
0.000000
0.000000
0.000000
0.000000
0.000000
0.000000
0.000000
0.000000
0.000000
0.000000
0.000000
0.000000
0.000000
0.000000
0.000000
0.000000
0.000000
0.000000
0.000000
0.000000
0.000000
0.000000
0.000000
0.000000
0.000000
0.000000
0.000000
0.000000
0.000000
0.000000
0.000000
0.000000
0.000000
0.000000
0.000000
0.000000
0.000000
0.000000
0.000000
0.000000
0.000000
0.000000
0.000000
0.000000
0.000000
0.000000
0.000000
0.000000
0.000000
0.000000
0.000000
0.000000
0.000000
0.000000
0.000000
0.000000
0.000000
0.000000
0.000000
0.000000
0.000000
0.000000
0.000000
0.000000
0.000000
0.000000
0.000000
0.000000
0.000000
0.000000
0.000000
0.000000
0.000000
0.000000
0.000000
0.000000
0.000000
0.000000
0.000000
0.000000
0.000000
0.000000
0.000000
0.000000
0.000000
0.000000
0.000000
0.000000
0.000000
0.000000
0.000000
0.000000
0.000000
0.000000
0.000000
0.000000
0.000000
0.000000
0.000000
0.000000
0.000000
0.000000
0.000000
0.000000
0.000000
0.000000
0.000000
0.000000
0.000000
0.000000
0.000000
0.000000
0.000000
0.000000
0.000000
0.000000
0.000000
0.000000
0.000000
0.000000
0.000000
0.000000
0.000000
0.000000
0.000000
0.000000
0.000000
0.000000
0.000000
0.000000
0.000000
0.000000
0.000000
0.000000
0.000000
0.000000
0.000000
0.000000
0.000000
0.000000
0.000000
0.000000
0.000000
0.000000
0.000000
0.000000
0.000000
0.000000
0.000000
0.000000
0.000000
0.000000
0.000000
0.000000
0.000000
0.000000
0.000000
0.000000
0.000000
0.000000
0.000000
0.000000
0.000000
0.000000
0.000000
0.000000
0.000000
0.000000
0.000000
0.000000
0.000000
0.000000
0.000000
0.000000
0.000000
0.000000
0.000000
0.000000
0.000000
0.000000
0.000000
0.000000
0.000000
0.000000
0.000000
0.000000
0.000000
0.000000
0.000000
0.000000
0.000000
0.000000
0.000000
0.000000
0.000000
0.000000
0.000000
0.000000
0.000000
0.000000
0.000000
0.000000
0.000000
0.000000
0.000000
0.000000
0.000000
0.000000
0.000000
0.000000
0.000000
0.000000
0.000000
0.000000
0.000000
0.000000
0.000000
0.000000
0.000000
0.000000
0.000000
0.000000
0.000000
0.000000
0.000000
0.000000
0.000000
0.000000
0.000000
0.000000
0.000000
0.000000
0.000000
0.000000
0.000000
0.000000
0.000000
0.000000
0.000000
0.000000
0.000000
0.000000
0.000000
0.000000
0.000000
0.000000
0.000000
0.000000
0.000000
0.000000
0.000000
0.000000
0.000000
0.000000
0.000000
0.000000
0.000000
0.000000
0.000000
0.000000
0.000000
0.000000
0.000000
0.000000
0.000000
0.000000
0.000000
0.000000
0.000000
0.000000
0.000000
0.000000
0.000000
0.000000
0.000000
0.000000
0.000000
0.000000
0.000000
0.000000
0.000000
0.000000
0.000000
0.000000
0.000000
0.000000
0.000000
0.000000
0.000000
0.000000
0.000000
0.000000
0.000000
0.000000
0.000000
0.000000
0.000000
0.000000
0.000000
0.000000
0.000000
0.000000
0.000000
0.000000
0.000000
0.000000
0.000000
0.000000
0.000000
0.000000
0.000000
0.000000
0.000000
0.000000
0.000000
0.000000
0.000000
0.000000
0.000000
0.000000
0.000000
0.000000
0.000000
0.000000
0.000000
0.000000
0.000000
0.000000
0.000000
0.000000
0.000000
0.000000
0.000000
0.000000
0.000000
0.000000
0.000000
0.000000
0.000000
0.000000
0.000000
0.000000
0.000000
0.000000
0.000000
0.000000
0.000000
0.000000
0.000000
0.000000
0.000000
0.000000
0.000000
0.000000
0.000000
0.000000
0.000000
0.000000
0.000000
0.000000
0.000000
0.000000
0.000000
0.000000
0.000000
0.000000
0.000000
0.000000
0.000000
0.000000
0.000000
0.000000
0.000000
0.000000
0.000000
0.000000
0.000000
0.000000
0.000000
0.000000
0.000000
0.000000
0.000000
0.000000
0.000000
0.000000
0.000000
0.000000
0.000000
0.000000
0.000000
0.000000
0.000000
0.000000
0.000000
0.000000
0.000000
0.000000
0.000000
0.000000
0.000000
0.000000
0.000000
0.000000
0.000000
0.000000
0.000000
0.000000
0.000000
0.000000
0.000000
0.000000
0.000000
0.000000
0.000000
0.000000
0.000000
0.000000
0.000000
0.000000
0.000000
0.000000
0.000000
0.000000
0.000000
0.000000
0.000000
0.000000
0.000000
0.000000
0.000000
0.000000
0.000000
0.000000
0.000000
0.000000
0.000000
0.000000
0.000000
0.000000
0.000000
0.000000
0.000000
0.000000
0.000000
0.000000
0.000000
0.000000
0.000000
0.000000
0.000000
0.000000
0.000000
0.000000
0.000000
0.000000
0.000000
0.000000
0.000000
0.000000
0.000000
0.000000
0.000000
0.000000
0.000000
0.000000
0.000000
0.000000
0.000000
0.000000
0.000000
0.000000
0.000000
0.000000
0.000000
0.000000
0.000000
0.000000
0.000000
0.000000
0.000000
0.000000
0.000000
0.000000
0.000000
0.000000
0.000000
0.000000
0.000000
0.000000
0.000000
0.000000
0.000000
0.000000
0.000000
0.000000
0.000000
0.000000
0.000000
0.000000
0.000000
0.000000
0.000000
0.000000
0.000000
0.000000
0.000000
0.000000
0.000000
0.000000
0.000000
0.000000
0.000000
0.000000
0.000000
0.000000
0.000000
0.000000
0.000000
0.000000
0.000000
0.000000
0.000000
0.000000
0.000000
0.000000
0.000000
0.000000
0.000000
0.000000
0.000000
0.000000
0.000000
0.000000
0.000000
0.000000
0.000000
0.000000
0.000000
0.000000
0.000000
0.000000
0.000000
0.000000
0.000000
0.000000
0.000000
0.000000
0.000000
0.000000
0.000000
0.000000
0.000000
0.000000
0.000000
0.000000
0.000000
0.000000
0.000000
0.000000
0.000000
0.000000
0.000000
0.000000
0.000000
0.000000
0.000000
0.000000
0.000000
0.000000
0.000000
0.000000
0.000000
0.000000
0.000000
0.000000
0.000000
0.000000
0.000000
0.000000
0.000000
0.000000
0.000000
0.000000
0.000000
0.000000
0.000000
0.000000
0.000000
0.000000
0.000000
0.000000
0.000000
0.000000
0.000000
0.000000
0.000000
0.000000
0.000000
0.000000
0.000000
0.000000
0.000000
0.000000
0.000000
0.000000
0.000000
0.000000
0.000000
0.000000
0.000000
0.000000
0.000000
0.000000
0.000000
0.000000
0.000000
0.000000
0.000000
0.000000
0.000000
0.000000
0.000000
0.000000
0.000000
0.000000
0.000000
0.000000
0.000000
0.000000
0.000000
0.000000
0.000000
0.000000
0.000000
0.000000
0.000000
0.000000
0.000000
0.000000
0.000000
0.000000
0.000000
0.000000
0.000000
0.000000
0.000000
0.000000
0.000000
0.000000
0.000000
0.000000
0.000000
0.000000
0.000000
0.000000
0.000000
0.000000
0.000000
0.000000
0.000000
0.000000
0.000000
0.000000
0.000000
0.000000
0.000000
0.000000
0.000000
0.000000
0.000000
0.000000
0.000000
0.000000
0.000000
0.000000
0.000000
0.000000
0.000000
0.000000
0.000000
0.000000
0.000000
0.000000
0.000000
0.000000
0.000000
0.000000
0.000000
0.000000
0.000000
0.000000
0.000000
0.000000
0.000000
0.000000
0.000000
0.000000
0.000000
0.000000
0.000000
0.000000
0.000000
0.000000
0.000000
0.000000
0.000000
0.000000
0.000000
0.000000
0.000000
0.000000
0.000000
0.000000
0.000000
0.000000
0.000000
0.000000
0.000000
0.000000
0.000000
0.000000
0.000000
0.000000
0.000000
0.000000
0.000000
0.000000
0.000000
0.000000
0.000000
0.000000
0.000000
0.000000
0.000000
0.000000
0.000000
0.000000
0.000000
0.000000
0.000000
0.000000
0.000000
0.000000
0.000000
0.000000
0.000000
0.000000
0.000000
0.000000
0.000000
0.000000
0.000000
0.000000
0.000000
0.000000
0.000000
0.000000
0.000000
0.000000
0.000000
0.000000
0.000000
0.000000
0.000000
0.000000
0.000000
0.000000
0.000000
0.000000
0.000000
0.000000
0.000000
0.000000
0.000000
0.000000
0.000000
0.000000
0.000000
0.000000
0.000000
0.000000
0.000000
0.000000
0.000000
0.000000
0.000000
0.000000
0.000000
0.000000
0.000000
0.000000
0.000000
0.000000
0.000000
0.000000
0.000000
0.000000
0.000000
0.000000
0.000000
0.000000
0.000000
0.000000
0.000000
0.000000
0.000000
0.000000
0.000000
0.000000
0.000000
0.000000
0.000000
0.000000
0.000000
0.000000
0.000000
0.000000
0.000000
0.000000
0.000000
0.000000
0.000000
0.000000
0.000000
0.000000
0.000000
0.000000
0.000000
0.000000
0.000000
0.000000
0.000000
0.000000
0.000000
0.000000
0.000000
0.000000
0.000000
0.000000
0.000000
0.000000
0.000000
0.000000
0.000000
0.000000
0.000000
0.000000
0.000000
0.000000
0.000000
0.000000
0.000000
0.000000
0.000000
0.000000
0.000000
0.000000
0.000000
0.000000
0.000000
0.000000
0.000000
0.000000
0.000000
0.000000
0.000000
0.000000
0.000000
0.000000
0.000000
0.000000
0.000000
0.000000
0.000000
0.000000
0.000000
0.000000
0.000000
0.000000
0.000000
0.000000
0.000000
0.000000
0.000000
0.000000
0.000000
0.000000
0.000000
0.000000
0.000000
0.000000
0.000000
0.000000
0.000000
0.000000
0.000000
0.000000
0.000000
0.000000
0.000000
0.000000
0.000000
0.000000
0.000000
0.000000
0.000000
0.000000
0.000000
0.000000
0.000000
0.000000
0.000000
0.000000
0.000000
0.000000
0.000000
0.000000
0.000000
0.000000
0.000000
0.000000
0.000000
0.000000
0.000000
0.000000
0.000000
0.000000
0.000000
0.000000
0.000000
0.000000
0.000000
0.000000
0.000000
0.000000
0.000000
0.000000
0.000000
0.000000
0.000000
0.000000
0.000000
0.000000
0.000000
0.000000
0.000000
0.000000
0.000000
0.000000
0.000000
0.000000
0.000000
0.000000
0.000000
0.000000
0.000000
0.000000
0.000000
0.000000
0.000000
0.000000
0.000000
0.000000
0.000000
0.000000
0.000000
0.000000
0.000000
0.000000
0.000000
0.000000
0.000000
0.000000
0.000000
0.000000
0.000000
0.000000
0.000000
0.000000
0.000000
0.000000
0.000000
0.000000
0.000000
0.000000
0.000000
0.000000
0.000000
0.000000
0.000000
0.000000
0.000000
0.000000
0.000000
0.000000
0.000000
0.000000
0.000000
0.000000
0.000000
0.000000
0.000000
0.000000
0.000000
0.000000
0.000000
0.000000
0.000000
0.000000
0.000000
0.000000
0.000000
0.000000
0.000000
0.000000
0.000000
0.000000
0.000000
0.000000
0.000000
0.000000
0.000000
0.000000
0.000000
0.000000
0.000000
0.000000
0.000000
0.000000
0.000000
0.000000
0.000000
0.000000
0.000000
0.000000
0.000000
0.000000
0.000000
0.000000
0.000000
0.000000
0.000000
0.000000
0.000000
0.000000
0.000000
0.000000
0.000000
0.000000
0.000000
0.000000
0.000000
0.000000
0.000000
0.000000
0.000000
0.000000
0.000000
0.000000
0.000000
0.000000
0.000000
0.000000
0.000000
0.000000
0.000000
0.000000
0.000000
0.000000
0.000000
0.000000
0.000000
0.000000
0.000000
0.000000
0.000000
0.000000
0.000000
0.000000
0.000000
0.000000
0.000000
0.000000
0.000000
0.000000
0.000000
0.000000
0.000000
0.000000
0.000000
0.000000
0.000000
0.000000
0.000000
0.000000
0.000000
0.000000
0.000000
0.000000
0.000000
0.000000
0.000000
0.000000
0.000000
0.000000
0.000000
0.000000
0.000000
0.000000
0.000000
0.000000
0.000000
0.000000
0.000000
0.000000
0.000000
0.000000
0.000000
0.000000
0.000000
0.000000
0.000000
0.000000
0.000000
0.000000
0.000000
0.000000
0.000000
0.000000
0.000000
0.000000
0.000000
0.000000
0.000000
0.000000
0.000000
0.000000
0.000000
0.000000
0.000000
0.000000
0.000000
0.000000
0.000000
0.000000
0.000000
0.000000
0.000000
0.000000
0.000000
0.000000
0.000000
0.000000
0.000000
0.000000
0.000000
0.000000
0.000000
0.000000
0.000000
0.000000
0.000000
0.000000
0.000000
0.000000
0.000000
0.000000
0.000000
0.000000
0.000000
0.000000
0.000000
0.000000
0.000000
0.000000
0.000000
0.000000
0.000000
0.000000
0.000000
0.000000
0.000000
0.000000
0.000000
0.000000
0.000000
0.000000
0.000000
0.000000
0.000000
0.000000
0.000000
0.000000
0.000000
0.000000
0.000000
0.000000
0.000000
0.000000
0.000000
0.000000
0.000000
0.000000
0.000000
0.000000
0.000000
0.000000
0.000000
0.000000
0.000000
0.000000
0.000000
0.000000
0.000000
0.000000
0.000000
0.000000
0.000000
0.000000
0.000000
0.000000
0.000000
0.000000
0.000000
0.000000
0.000000
0.000000
0.000000
0.000000
0.000000
0.000000
0.000000
0.000000
0.000000
0.000000
0.000000
0.000000
0.000000
0.000000
0.000000
0.000000
0.000000
0.000000
0.000000
0.000000
0.000000
0.000000
0.000000
0.000000
0.000000
0.000000
0.000000
0.000000
0.000000
0.000000
0.000000
0.000000
0.000000
0.000000
0.000000
0.000000
0.000000
0.000000
0.000000
0.000000
0.000000
0.000000
0.000000
0.000000
0.000000
0.000000
0.000000
0.000000
0.000000
0.000000
0.000000
0.000000
0.000000
0.000000
0.000000
0.000000
0.000000
0.000000
0.000000
0.000000
0.000000
0.000000
0.000000
0.000000
0.000000
0.000000
0.000000
0.000000
0.000000
0.000000
0.000000
0.000000
0.000000
0.000000
0.000000
0.000000
0.000000
0.000000
0.000000
0.000000
0.000000
0.000000
0.000000
0.000000
0.000000
0.000000
0.000000
0.000000
0.000000
0.000000
0.000000
0.000000
0.000000
0.000000
0.000000
0.000000
0.000000
0.000000
0.000000
0.000000
0.000000
0.000000
0.000000
0.000000
0.000000
0.000000
0.000000
0.000000
0.000000
0.000000
0.000000
0.000000
0.000000
0.000000
0.000000
0.000000
0.000000
0.000000
0.000000
0.000000
0.000000
0.000000
0.000000
0.000000
0.000000
0.000000
0.000000
0.000000
0.000000
0.000000
0.000000
0.000000
0.000000
0.000000
0.000000
0.000000
0.000000
0.000000
0.000000
0.000000
0.000000
0.000000
0.000000
0.000000
0.000000
0.000000
0.000000
0.000000
0.000000
0.000000
0.000000
0.000000
0.000000
0.000000
0.000000
0.000000
0.000000
0.000000
0.000000
0.000000
0.000000
0.000000
0.000000
0.000000
0.000000
0.000000
0.000000
0.000000
0.000000
0.000000
0.000000
0.000000
0.000000
0.000000
0.000000
0.000000
0.000000
0.000000
0.000000
0.000000
0.000000
0.000000
0.000000
0.000000
0.000000
0.000000
0.000000
0.000000
0.000000
0.000000
0.000000
0.000000
0.000000
0.000000
0.000000
0.000000
0.000000
0.000000
0.000000
0.000000
0.000000
0.000000
0.000000
0.000000
0.000000
0.000000
0.000000
0.000000
0.000000
0.000000
0.000000
0.000000
0.000000
0.000000
0.000000
0.000000
0.000000
0.000000
0.000000
0.000000
0.000000
0.000000
0.000000
0.000000
0.000000
0.000000
0.000000
0.000000
0.000000
0.000000
0.000000
0.000000
0.000000
0.000000
0.000000
0.000000
0.000000
0.000000
0.000000
0.000000
0.000000
0.000000
0.000000
0.000000
0.000000
0.000000
0.000000
0.000000
0.000000
0.000000
0.000000
0.000000
0.000000
0.000000
0.000000
0.000000
0.000000
0.000000
0.000000
0.000000
0.000000
0.000000
0.000000
0.000000
0.000000
0.000000
0.000000
0.000000
0.000000
0.000000
0.000000
0.000000
0.000000
0.000000
0.000000
0.000000
0.000000
0.000000
0.000000
0.000000
0.000000
0.000000
0.000000
0.000000
0.000000
0.000000
0.000000
0.000000
0.000000
0.000000
0.000000
0.000000
0.000000
0.000000
0.000000
0.000000
0.000000
0.000000
0.000000
0.000000
0.000000
0.000000
0.000000
0.000000
0.000000
0.000000
0.000000
0.000000
0.000000
0.000000
0.000000
0.000000
0.000000
0.000000
0.000000
0.000000
0.000000
0.000000
0.000000
0.000000
0.000000
0.000000
0.000000
0.000000
0.000000
0.000000
0.000000
0.000000
0.000000
0.000000
0.000000
0.000000
0.000000
0.000000
0.000000
0.000000
0.000000
0.000000
0.000000
0.000000
0.000000
0.000000
0.000000
0.000000
0.000000
0.000000
0.000000
0.000000
0.000000
0.000000
0.000000
0.000000
0.000000
0.000000
0.000000
0.000000
0.000000
0.000000
0.000000
0.000000
0.000000
0.000000
0.000000
0.000000
0.000000
0.000000
0.000000
0.000000
0.000000
0.000000
0.000000
0.000000
0.000000
0.000000
0.000000
0.000000
0.000000
0.000000
0.000000
0.000000
0.000000
0.000000
0.000000
0.000000
0.000000
0.000000
0.000000
0.000000
0.000000
0.000000
0.000000
0.000000
0.000000
0.000000
0.000000
0.000000
0.000000
0.000000
0.000000
0.000000
0.000000
0.000000
0.000000
0.000000
0.000000
0.000000
0.000000
0.000000
0.000000
0.000000
0.000000
0.000000
0.000000
0.000000
0.000000
0.000000
0.000000
0.000000
0.000000
0.000000
0.000000
0.000000
0.000000
0.000000
0.000000
0.000000
0.000000
0.000000
0.000000
0.000000
0.000000
0.000000
0.000000
0.000000
0.000000
0.000000
0.000000
0.000000
0.000000
0.000000
0.000000
0.000000
0.000000
0.000000
0.000000
0.000000
0.000000
0.000000
0.000000
0.000000
0.000000
0.000000
0.000000
0.000000
0.000000
0.000000
0.000000
0.000000
0.000000
0.000000
0.000000
0.000000
0.000000
0.000000
0.000000
0.000000
0.000000
0.000000
0.000000
0.000000
0.000000
0.000000
0.000000
0.000000
0.000000
0.000000
0.000000
0.000000
0.000000
0.000000
0.000000
0.000000
0.000000
0.000000
0.000000
0.000000
0.000000
0.000000
0.000000
0.000000
0.000000
0.000000
0.000000
0.000000
0.000000
0.000000
0.000000
0.000000
0.000000
0.000000
0.000000
0.000000
0.000000
0.000000
0.000000
0.000000
0.000000
0.000000
0.000000
0.000000
0.000000
0.000000
0.000000
0.000000
0.000000
0.000000
0.000000
0.000000
0.000000
0.000000
0.000000
0.000000
0.000000
0.000000
0.000000
0.000000
0.000000
0.000000
0.000000
0.000000
0.000000
0.000000
0.000000
0.000000
0.000000
0.000000
0.000000
0.000000
0.000000
0.000000
0.000000
0.000000
0.000000
0.000000
0.000000
0.000000
0.000000
0.000000
0.000000
0.000000
0.000000
0.000000
0.000000
0.000000
0.000000
0.000000
0.000000
0.000000
0.000000
0.000000
0.000000
0.000000
0.000000
0.000000
0.000000
0.000000
0.000000
0.000000
0.000000
0.000000
0.000000
0.000000
0.000000
0.000000
0.000000
0.000000
0.000000
0.000000
0.000000
0.000000
0.000000
0.000000
0.000000
0.000000
0.000000
0.000000
0.000000
0.000000
0.000000
0.000000
0.000000
0.000000
0.000000
0.000000
0.000000
0.000000
0.000000
0.000000
0.000000
0.000000
0.000000
0.000000
0.000000
0.000000
0.000000
0.000000
0.000000
0.000000
0.000000
0.000000
0.000000
0.000000
0.000000
0.000000
0.000000
0.000000
0.000000
0.000000
0.000000
0.000000
0.000000
0.000000
0.000000
0.000000
0.000000
0.000000
0.000000
0.000000
0.000000
0.000000
0.000000
0.000000
0.000000
0.000000
0.000000
0.000000
0.000000
0.000000
0.000000
0.000000
0.000000
0.000000
0.000000
0.000000
0.000000
0.000000
0.000000
0.000000
0.000000
0.000000
0.000000
0.000000
0.000000
0.000000
0.000000
0.000000
0.000000
0.000000
0.000000
0.000000
0.000000
0.000000
0.000000
0.000000
0.000000
0.000000
0.000000
0.000000
0.000000
0.000000
0.000000
0.000000
0.000000
0.000000
0.000000
0.000000
0.000000
0.000000
0.000000
0.000000
0.000000
0.000000
0.000000
0.000000
0.000000
0.000000
0.000000
0.000000
0.000000
0.000000
0.000000
0.000000
0.000000
0.000000
0.000000
0.000000
0.000000
0.000000
0.000000
0.000000
0.000000
0.000000
0.000000
0.000000
0.000000
0.000000
0.000000
0.000000
0.000000
0.000000
0.000000
0.000000
0.000000
0.000000
0.000000
0.000000
0.000000
0.000000
0.000000
0.000000
0.000000
0.000000
0.000000
0.000000
0.000000
0.000000
0.000000
0.000000
0.000000
0.000000
0.000000
0.000000
0.000000
0.000000
0.000000
0.000000
0.000000
0.000000
0.000000
0.000000
0.000000
0.000000
0.000000
0.000000
0.000000
0.000000
0.000000
0.000000
0.000000
0.000000
0.000000
0.000000
0.000000
0.000000
0.000000
0.000000
0.000000
0.000000
0.000000
0.000000
0.000000
0.000000
0.000000
0.000000
0.000000
0.000000
0.000000
0.000000
0.000000
0.000000
0.000000
0.000000
0.000000
0.000000
0.000000
0.000000
0.000000
0.000000
0.000000
0.000000
0.000000
0.000000
0.000000
0.000000
0.000000
0.000000
0.000000
0.000000
0.000000
0.000000
0.000000
0.000000
0.000000
0.000000
0.000000
0.000000
0.000000
0.000000
0.000000
0.000000
0.000000
0.000000
0.000000
0.000000
0.000000
0.000000
0.000000
0.000000
0.000000
0.000000
0.000000
0.000000
0.000000
0.000000
0.000000
0.000000
0.000000
0.000000
0.000000
0.000000
0.000000
0.000000
0.000000
0.000000
0.000000
0.000000
0.000000
0.000000
0.000000
0.000000
0.000000
0.000000
0.000000
0.000000
0.000000
0.000000
0.000000
0.000000
0.000000
0.000000
0.000000
0.000000
0.000000
0.000000
0.000000
0.000000
0.000000
0.000000
0.000000
0.000000
0.000000
0.000000
0.000000
0.000000
0.000000
0.000000
0.000000
0.000000
0.000000
0.000000
0.000000
0.000000
0.000000
0.000000
0.000000
0.000000
0.000000
0.000000
0.000000
0.000000
0.000000
0.000000
0.000000
0.000000
0.000000
0.000000
0.000000
0.000000
0.000000
0.000000
0.000000
0.000000
0.000000
0.000000
0.000000
0.000000
0.000000
0.000000
0.000000
0.000000
0.000000
0.000000
0.000000
0.000000
0.000000
0.000000
0.000000
0.000000
0.000000
0.000000
0.000000
0.000000
0.000000
0.000000
0.000000
0.000000
0.000000
0.000000
0.000000
0.000000
0.000000
0.000000
0.000000
0.000000
0.000000
0.000000
0.000000
0.000000
0.000000
0.000000
0.000000
0.000000
0.000000
0.000000
0.000000
0.000000
0.000000
0.000000
0.000000
0.000000
0.000000
0.000000
0.000000
0.000000
0.000000
0.000000
0.000000
0.000000
0.000000
0.000000
0.000000
0.000000
0.000000
0.000000
0.000000
0.000000
0.000000
0.000000
0.000000
0.000000
0.000000
0.000000
0.000000
0.000000
0.000000
0.000000
0.000000
0.000000
0.000000
0.000000
0.000000
0.000000
0.000000
0.000000
0.000000
0.000000
0.000000
0.000000
0.000000
0.000000
0.000000
0.000000
0.000000
0.000000
0.000000
0.000000
0.000000
0.000000
0.000000
0.000000
0.000000
0.000000
0.000000
0.000000
0.000000
0.000000
0.000000
0.000000
0.000000
0.000000
0.000000
0.000000
0.000000
0.000000
0.000000
0.000000
0.000000
0.000000
0.000000
0.000000
0.000000
0.000000
0.000000
0.000000
0.000000
0.000000
0.000000
0.000000
0.000000
0.000000
0.000000
0.000000
0.000000
0.000000
0.000000
0.000000
0.000000
0.000000
0.000000
0.000000
0.000000
0.000000
0.000000
0.000000
0.000000
0.000000
0.000000
0.000000
0.000000
0.000000
0.000000
0.000000
0.000000
0.000000
0.000000
0.000000
0.000000
0.000000
0.000000
0.000000
0.000000
0.000000
0.000000
0.000000
0.000000
0.000000
0.000000
0.000000
0.000000
0.000000
0.000000
0.000000
0.000000
0.000000
0.000000
